 vasp.5.4.4.18Apr17-6-g9f103f2a35 (build Jun 06 2017 17:32:29) complex

 executed on      LLNL_Quartz_ifc date 2020.03.09  21:19:22

 INCAR:
 POTCAR:   PAW_PBE Ga_d 06Sep2000
 POTCAR:   PAW_PBE Fe_pv 06Sep2000
 POTCAR:   PAW_PBE O 08Apr2002

 POTCAR:   PAW_PBE Ga_d 06Sep2000
   VRHFIN =Ga: s2p1

   TITEL  = PAW_PBE Ga_d 06Sep2000
   POMASS =   69.723; ZVAL   =   13.000    mass and valenz
   ENMAX  =  282.697; ENMIN  =  212.022 eV
   QCUT   =   -4.558; QGAM   =    9.117    optimization parameters

   Description
     l     E      TYP  RCUT    TYP  RCUT
     2   .000     23  2.300
     2  -.400     23  2.300
     0   .000     23  2.300
     0   .000     23  2.300
     1   .000     23  2.300
     1   .000     23  2.300
     3  -.100      7  2.300

 POTCAR:   PAW_PBE Fe_pv 06Sep2000
   VRHFIN =Fe:  3pd7s1

   TITEL  = PAW_PBE Fe_pv 06Sep2000
   POMASS =   55.847; ZVAL   =   14.000    mass and valenz
   ENMAX  =  293.238; ENMIN  =  219.929 eV
   QCUT   =   -4.642; QGAM   =    9.285    optimization parameters

[...]

 POTCAR:   PAW_PBE O 08Apr2002
   VRHFIN =O: s2p4

   TITEL  = PAW_PBE O 08Apr2002
   POMASS =   16.000; ZVAL   =    6.000    mass and valenz
   ENMAX  =  400.000; ENMIN  =  300.000 eV
   QCUT   =   -5.520; QGAM   =   11.041    optimization parameters

   Description
     l     E      TYP  RCUT    TYP  RCUT
     0   .000     23  1.200
     0  -.700     23  1.200
     1   .000     23  1.520
     1   .600     23  1.520
     2   .000      7  1.500

 Optimization of the real space projectors (new method)

 maximal supplied QI-value         = 16.25
 optimisation between [QCUT,QGAM] = [ 10.24, 20.48] = [ 29.35,117.42] Ry
 Optimized for a Real-space Cutoff    1.38 Angstroem

   l    n(q)    QCUT    max X(q) W(low)/X(q) W(high)/X(q)  e(spline)
   2      7    10.239     6.328    0.33E-04    0.68E-04    0.30E-07
   2      7    10.239     9.625    0.20E-03    0.23E-03    0.80E-07
   0      8    10.239     9.711    0.17E-04    0.17E-04    0.13E-07
   0      8    10.239    32.764    0.56E-04    0.14E-03    0.62E-07
   1      8    10.239     7.413    0.78E-04    0.28E-04    0.38E-07
   1      8    10.239    31.472    0.43E-03    0.30E-03    0.73E-07
 Optimization of the real space projectors (new method)

[...]

   l    n(q)    QCUT    max X(q) W(low)/X(q) W(high)/X(q)  e(spline)
   1      9    10.205     4.550    0.11E-04    0.61E-05    0.27E-07
   1      9    10.205     5.234    0.14E-04    0.12E-03    0.13E-06
   2      8    10.205     3.960    0.41E-04    0.45E-04    0.45E-07
   2      8    10.205    29.565    0.45E-03    0.40E-03    0.42E-06
   0      9    10.205    23.582    0.19E-04    0.16E-05    0.90E-08
   0      9    10.205    39.747    0.62E-04    0.50E-04    0.87E-07
 Optimization of the real space projectors (new method)

 maximal supplied QI-value         = 24.76
 optimisation between [QCUT,QGAM] = [ 10.15, 20.30] = [ 28.85,115.39] Ry
 Optimized for a Real-space Cutoff    1.30 Angstroem

   l    n(q)    QCUT    max X(q) W(low)/X(q) W(high)/X(q)  e(spline)
   0      8    10.150     4.192    0.55E-04    0.58E-04    0.78E-07
   0      8    10.150     8.473    0.46E-03    0.68E-03    0.23E-06
   1      7    10.150     2.474    0.11E-03    0.93E-04    0.33E-07
   1      7    10.150     3.912    0.46E-03    0.50E-03    0.15E-06
 PAW_PBE Ga_d 06Sep2000                 :
 PAW_PBE Fe_pv 06Sep2000                :
 PAW_PBE O 08Apr2002                    :

 POSCAR: Ga Fe  O
  positions in direct lattice
  velocities in cartesian coordinates
 exchange correlation table for  LEXCH =        8
   RHO(1)=    0.500       N(1)  =     2000
   RHO(2)=  100.500       N(2)  =     4000

 ion  position               nearest neighbor table
   1  0.090  1.000  0.396-  99 1.82 140 1.82 108 1.83 106 1.87
   2  0.411  0.625  0.604-  85 1.83 157 1.83  72 1.83 121 1.86
   3  0.589  0.625  0.896-  86 1.83 158 1.83  71 1.83 136 1.86
   4  0.160  0.625  0.655-  78 1.93 149 1.94  80 1.94 121 2.01  75 2.07 154 2.08
   5  0.840  0.625  0.844-  77 1.93 150 1.94  79 1.94 136 2.01  76 2.08 153 2.08
   6  0.910  0.500  0.604-  90 1.83  78 1.83 118 1.83  76 1.86
   7  0.089  0.501  0.895-  77 1.82 117 1.83  68 1.83  75 1.85
   8  0.841  0.375  0.844-  79 1.93 117 1.93 119 1.94  65 2.01  76 2.07 116 2.08
   9  0.911  0.250  0.604- 131 1.83  97 1.83 118 1.83 116 1.86
  10  0.089  0.250  0.897-  96 1.83 117 1.83 132 1.85  93 1.86
  11  0.840  0.625  0.344-  89 1.93 138 1.94  90 1.94  81 2.01 141 2.08  88 2.08
  12  0.660  1.000  0.656- 155 1.93 114 1.93 102 1.95  95 2.01 160 2.06 133 2.07
  13  0.159  0.626  0.155-  70 1.93 137 1.93  68 1.94  82 2.01 142 2.07  87 2.09
  14  0.088  0.250  0.402- 120 1.81 108 1.82 129 1.82 127 1.92
  15  0.911  0.250  0.104- 119 1.83 109 1.84 130 1.84 128 1.86
  16  0.840  0.375  0.344-  90 1.93 131 1.94 129 1.94  92 2.02  88 2.06 128 2.08
  17  0.160  0.379  0.152-  68 1.90 130 1.92 132 1.93 122 2.01  87 2.06 127 2.22
  18  0.590  0.377  0.396- 135 1.81  83 1.82  92 1.85 123 1.88
  19  0.412  0.375  0.103-  91 1.82  69 1.82 124 1.83 122 1.88
  20  0.660  0.250  0.155- 105 1.93 126 1.93 124 1.94 128 2.00 100 2.08  92 2.08
  21  0.411  0.625  0.104-  73 1.82 145 1.83  69 1.83  82 1.86
  22  0.340  0.502  0.343-  83 1.92  85 1.92 125 1.96  87 2.00  82 2.04 122 2.09
  23  0.589  0.625  0.396-  74 1.83 146 1.83  83 1.84  81 1.86
  24  0.341  1.000  0.844- 115 1.93 156 1.93 113 1.94  94 2.01 159 2.07 134 2.07
  25  0.412  0.125  0.606- 114 1.82  84 1.83 134 1.85 104 1.85
  26  0.589  0.125  0.896- 105 1.83 115 1.83  67 1.83 133 1.86
  27  0.910  0.000  0.104-  98 1.82 139 1.83 109 1.84 107 1.86
  28  0.840  0.125  0.344- 110 1.93 131 1.94 108 1.94 100 2.02 107 2.06 128 2.08
  29  0.160  0.121  0.152- 111 1.90 109 1.92 132 1.93 101 2.00 106 2.06 127 2.22
  30  0.590  0.123  0.396- 102 1.82 103 1.82 100 1.85 123 1.88
  31  0.412  0.125  0.103- 113 1.82 112 1.82 124 1.83 101 1.88
  32  0.340  0.998  0.342- 103 1.92 144 1.92 104 1.97 106 2.00 147 2.04 101 2.09
  33  0.660  1.000  0.156- 143 1.93 112 1.93 105 1.93 107 2.01 148 2.07 100 2.09
  34  0.090  0.500  0.396-  80 1.82  89 1.82 129 1.83  87 1.87
  35  0.660  0.501  0.156-  86 1.93  69 1.93 126 1.93  88 2.01  81 2.07  92 2.09
  36  0.660  0.250  0.656-  84 1.94 135 1.94 102 1.94 116 2.00 133 2.07  65 2.07
  37  0.910  0.500  0.104-  79 1.82  70 1.83 130 1.84  88 1.86
  38  0.412  0.375  0.606-  72 1.82  84 1.83  66 1.85 125 1.85
  39  0.589  0.375  0.896- 126 1.83  71 1.83  67 1.83  65 1.86
  40  0.160  0.376  0.657- 118 1.93  80 1.94 120 1.94  66 2.01  75 2.05  93 2.08
  41  0.660  0.500  0.656-  74 1.93  72 1.93 135 1.95  76 2.01 136 2.06  65 2.07
  42  0.341  0.501  0.844-  71 1.93  73 1.93  91 1.94  75 2.01 121 2.07  66 2.07
  43  0.089  0.999  0.895- 152 1.82  96 1.83 111 1.83  94 1.85
  44  0.910  1.000  0.604- 110 1.83 151 1.83  97 1.83  95 1.86
  45  0.841  0.125  0.844-  98 1.93  96 1.93 119 1.94 133 2.01  95 2.07 116 2.08
  46  0.160  0.124  0.657-  97 1.93  99 1.94 120 1.94 134 2.01  94 2.05  93 2.08
  47  0.340  0.250  0.845-  67 1.93 113 1.94  91 1.94  93 2.00  66 2.08 134 2.08
  48  0.088  0.750  0.396- 149 1.83 140 1.83  89 1.83 142 1.87
  49  0.911  0.750  0.104- 150 1.83 139 1.84  70 1.84 141 1.86
  50  0.840  0.875  0.344- 140 1.93 138 1.94 110 1.94 148 2.01 141 2.08 107 2.08
  51  0.159  0.874  0.155- 139 1.93 137 1.93 111 1.94 147 2.01 142 2.07 106 2.09
  52  0.589  0.875  0.396- 155 1.82 146 1.83 103 1.84 148 1.86
  53  0.411  0.875  0.103- 156 1.82 145 1.83 112 1.83 147 1.86
  54  0.340  0.750  0.345- 146 1.93  85 1.94 144 1.94 142 2.01 147 2.09  82 2.09
  55  0.660  0.750  0.155- 145 1.93 143 1.94  86 1.94 141 2.01 148 2.09  81 2.09
  56  0.089  0.750  0.895- 137 1.83 152 1.83  77 1.83 154 1.86
  57  0.912  0.750  0.604- 138 1.83 151 1.83  78 1.83 153 1.86
  58  0.840  0.875  0.844- 152 1.93 150 1.94  98 1.94 160 2.01  95 2.08 153 2.08
  59  0.160  0.875  0.655- 151 1.93 149 1.94  99 1.94 159 2.01  94 2.07 154 2.08
  60  0.589  0.875  0.896- 143 1.83 158 1.83 115 1.83 160 1.86
[...]
 146  0.502  0.750  0.372-  52 1.83  23 1.83  54 1.93
 147  0.327  0.876  0.219-  53 1.86  51 2.01  32 2.04  54 2.09
 148  0.672  0.876  0.281-  52 1.86  50 2.01  33 2.07  55 2.09
 149  0.164  0.750  0.553-  48 1.83  59 1.94   4 1.94
 150  0.836  0.750  0.947-  49 1.83  58 1.94   5 1.94
 151  0.997  0.876  0.628-  44 1.83  57 1.83  59 1.93
 152  0.003  0.876  0.872-  43 1.82  56 1.83  58 1.93
 153  0.827  0.750  0.719-  57 1.86  63 2.00   5 2.08  58 2.08
 154  0.172  0.750  0.781-  56 1.86  62 2.01  59 2.08   4 2.08
 155  0.664  0.876  0.553-  52 1.82  12 1.93  63 1.94
 156  0.336  0.876  0.947-  53 1.82  24 1.93  62 1.94
 157  0.497  0.750  0.627-  61 1.83   2 1.83  63 1.93
 158  0.503  0.750  0.872-  60 1.83   3 1.83  62 1.93
 159  0.328  0.876  0.719-  61 1.86  59 2.01  24 2.07  62 2.08
 160  0.672  0.876  0.781-  60 1.86  58 2.01  12 2.06  63 2.09

  LATTYP: Found a simple monoclinic cell.
 ALAT       =    14.6889751464
 B/A-ratio  =     0.8259161174
 C/A-ratio  =     1.5972413798
 COS(beta)  =    -0.9171837574

  Lattice vectors:

 A1 = ( -11.8609006218,   0.0000000000,  -8.6651617002)
 A2 = (   0.0000000000, -12.1318613217,   0.0000000000)
 A3 = (  11.8609006218,   0.0000000000,  20.2429474736)

Analysis of symmetry for initial positions (statically):
 Subroutine PRICEL returns:
 Original cell was already a primitive cell.

 Routine SETGRP: Setting up the symmetry group for a
 simple monoclinic supercell.

 Subroutine GETGRP returns: Found  1 space group operations
 (whereof  1 operations were pure point group operations)
 out of a pool of  4 trial point group operations.

The static configuration has the point symmetry C_1 .

Analysis of symmetry for dynamics (positions and initial velocities):
 Subroutine PRICEL returns:
 Original cell was already a primitive cell.

[...]

The dynamic configuration has the point symmetry C_1 .

Analysis of structural, dynamic, and magnetic symmetry:
 Subroutine PRICEL returns:
 Original cell was already a primitive cell.

 Routine SETGRP: Setting up the symmetry group for a
 simple monoclinic supercell.

 Subroutine GETGRP returns: Found  1 space group operations
 (whereof  1 operations were pure point group operations)
 out of a pool of  4 trial point group operations.

The magnetic configuration has the point symmetry C_1 .

 Subroutine INISYM returns: Found  1 space group operations
 (whereof  1 operations are pure point group operations),
 and found     1 'primitive' translations

 KPOINTS: KPOINTS created by Atomic Simulation Env
  k-points in reciprocal lattice
Space group operators:
 irot       det(A)        alpha          n_x          n_y          n_z        tau_x        tau_y        tau_z
    1     1.000000     0.000000     1.000000     0.000000     0.000000     0.000000     0.000000     0.000000

 Subroutine IBZKPT_HF returns following result:

 Found      2 k-points in 1st BZ
 the following      2 k-points will be used (e.g. in the exchange kernel)
 Following reciprocal coordinates:   # in IRBZ
  0.250000  0.250000  0.250000    0.50000000   1 t-inv F
 -0.250000 -0.250000 -0.250000    0.50000000   1 t-inv T

 SYSTEM =  unknown system
 POSCAR =  Ga Fe  O

 Startparameter for this run:
[...]
   -.716E+02 0.947E-01 -.231E+02   0.690E+02 -.849E-01 0.242E+02   0.241E+01 -.108E-01 -.919E+00
   -.370E+02 -.299E+01 -.709E+02   0.382E+02 0.304E+01 0.758E+02   -.111E+01 -.304E-01 -.459E+01
   0.333E+02 -.286E+01 0.754E+02   -.343E+02 0.215E+01 -.797E+02   0.949E+00 0.650E+00 0.403E+01
   0.422E+02 0.591E+00 0.664E+02   -.437E+02 0.187E+00 -.714E+02   0.145E+01 -.699E+00 0.468E+01
   -.579E+02 0.307E+00 0.333E+02   0.550E+02 -.307E+00 -.270E+02   0.265E+01 -.372E-03 -.567E+01
   0.567E+02 0.182E+00 0.510E+01   -.553E+02 -.182E+00 -.763E+01   -.129E+01 0.141E-02 0.229E+01
   -.389E+02 0.770E+01 -.693E+02   0.400E+02 -.735E+01 0.742E+02   -.970E+00 -.334E+00 -.459E+01
   0.493E+02 0.540E+02 0.500E+02   -.511E+02 -.509E+02 -.572E+02   0.168E+01 -.287E+01 0.673E+01
   -.794E+02 0.281E+02 -.977E+01   0.799E+02 -.243E+02 0.124E+02   -.450E+00 -.350E+01 -.233E+01
   0.723E+02 0.467E+01 0.120E+02   -.699E+02 -.438E+01 -.155E+02   -.224E+01 -.258E+00 0.314E+01
   0.263E+02 0.916E-02 0.722E+02   -.273E+02 -.104E-01 -.772E+02   0.942E+00 0.213E-02 0.467E+01
   0.691E+02 -.691E+01 0.132E+02   -.671E+02 0.685E+01 -.159E+02   -.184E+01 0.734E-01 0.249E+01
   -.332E+02 0.108E+02 -.778E+02   0.345E+02 -.812E+01 0.818E+02   -.122E+01 -.245E+01 -.374E+01
   -.779E+02 -.679E+01 -.127E+02   0.765E+02 0.706E+01 0.152E+02   0.138E+01 -.218E+00 -.225E+01
   -.378E+02 -.105E+01 -.729E+02   0.393E+02 0.566E+00 0.776E+02   -.141E+01 0.440E+00 -.441E+01
   0.783E+02 0.392E+01 0.178E+02   -.750E+02 -.423E+01 -.179E+02   -.303E+01 0.277E+00 0.140E+00
   -.810E+02 -.607E+01 -.152E+02   0.789E+02 0.574E+01 0.177E+02   0.195E+01 0.298E+00 -.219E+01
   0.731E+02 -.833E+01 0.116E+02   -.714E+02 0.757E+01 -.141E+02   -.158E+01 0.676E+00 0.227E+01
   -.390E+02 -.785E+01 -.693E+02   0.400E+02 0.749E+01 0.742E+02   -.965E+00 0.336E+00 -.459E+01
   0.504E+02 -.551E+02 0.499E+02   -.520E+02 0.520E+02 -.570E+02   0.157E+01 0.290E+01 0.673E+01
   -.792E+02 -.283E+02 -.993E+01   0.797E+02 0.244E+02 0.125E+02   -.453E+00 0.350E+01 -.233E+01
   0.712E+02 -.606E+01 0.129E+02   -.689E+02 0.571E+01 -.163E+02   -.213E+01 0.314E+00 0.301E+01
   -.338E+02 -.116E+02 -.812E+02   0.351E+02 0.891E+01 0.849E+02   -.121E+01 0.251E+01 -.347E+01
   0.282E+02 -.559E+01 0.692E+02   -.295E+02 0.499E+01 -.744E+02   0.120E+01 0.568E+00 0.490E+01
   -.683E+02 0.443E+01 -.884E+01   0.661E+02 -.423E+01 0.118E+02   0.209E+01 -.166E+00 -.269E+01
   0.285E+02 0.503E+01 0.692E+02   -.298E+02 -.445E+01 -.744E+02   0.118E+01 -.542E+00 0.490E+01
   0.292E+02 0.217E+00 0.781E+02   -.300E+02 -.208E+00 -.824E+02   0.760E+00 -.548E-02 0.405E+01
   0.730E+02 0.792E+01 0.116E+02   -.713E+02 -.716E+01 -.142E+02   -.158E+01 -.677E+00 0.227E+01
   0.774E+02 -.296E+01 0.165E+02   -.741E+02 0.332E+01 -.168E+02   -.292E+01 -.319E+00 0.327E+00
   -.813E+02 0.580E+01 -.156E+02   0.791E+02 -.549E+01 0.180E+02   0.198E+01 -.279E+00 -.219E+01
   0.439E+02 0.681E+01 0.741E+02   -.452E+02 -.624E+01 -.784E+02   0.126E+01 -.535E+00 0.405E+01
   0.326E+02 0.247E+01 0.756E+02   -.337E+02 -.178E+01 -.799E+02   0.984E+00 -.630E+00 0.403E+01
   -.378E+02 0.654E+00 -.736E+02   0.393E+02 -.169E+00 0.782E+02   -.140E+01 -.441E+00 -.439E+01
   -.662E+02 -.273E+01 -.151E+02   0.637E+02 0.250E+01 0.170E+02   0.222E+01 0.191E+00 -.177E+01
   0.782E+02 -.387E+00 0.169E+02   -.759E+02 0.283E+00 -.193E+02   -.208E+01 0.805E-01 0.219E+01
   -.371E+02 -.822E+01 -.758E+02   0.384E+02 0.774E+01 0.805E+02   -.120E+01 0.448E+00 -.446E+01
   0.435E+02 -.682E+01 0.743E+02   -.449E+02 0.624E+01 -.786E+02   0.126E+01 0.539E+00 0.406E+01
   -.369E+02 0.365E+00 -.767E+02   0.379E+02 -.349E+00 0.814E+02   -.980E+00 -.157E-01 -.443E+01
   -.650E+02 0.213E+00 -.115E+02   0.634E+02 -.203E+00 0.142E+02   0.155E+01 -.839E-02 -.247E+01
   0.737E+02 0.368E+00 0.104E+02   -.723E+02 -.351E+00 -.129E+02   -.127E+01 -.144E-01 0.229E+01
   -.371E+02 0.310E+01 -.707E+02   0.383E+02 -.314E+01 0.756E+02   -.111E+01 0.264E-01 -.460E+01
   0.425E+02 -.196E+00 0.660E+02   -.440E+02 -.588E+00 -.710E+02   0.147E+01 0.710E+00 0.469E+01
   -.780E+02 0.672E+01 -.131E+02   0.765E+02 -.701E+01 0.156E+02   0.140E+01 0.233E+00 -.225E+01
   0.690E+02 0.739E+01 0.135E+02   -.670E+02 -.735E+01 -.163E+02   -.187E+01 -.552E-01 0.250E+01
   -.349E+02 0.320E+00 -.747E+02   0.361E+02 -.305E+00 0.796E+02   -.117E+01 -.127E-01 -.462E+01
   0.300E+02 0.317E+00 0.709E+02   -.311E+02 -.313E+00 -.758E+02   0.104E+01 -.203E-02 0.469E+01
   -.670E+02 0.386E+00 -.116E+02   0.652E+02 -.377E+00 0.138E+02   0.168E+01 -.633E-02 -.197E+01
   0.734E+02 0.255E+00 0.133E+02   -.717E+02 -.246E+00 -.158E+02   -.151E+01 -.622E-02 0.224E+01
   -.338E+02 0.350E+01 -.746E+02   0.351E+02 -.364E+01 0.793E+02   -.122E+01 0.109E+00 -.444E+01
   0.399E+02 0.514E+01 0.774E+02   -.412E+02 -.528E+01 -.821E+02   0.118E+01 0.113E+00 0.435E+01
   -.773E+02 0.698E+01 -.127E+02   0.753E+02 -.688E+01 0.151E+02   0.183E+01 -.115E+00 -.217E+01
[...]
   -.480E+02 0.996E+01 0.576E+02   0.473E+02 -.109E+02 -.529E+02   0.475E+00 0.678E+00 -.398E+01
   0.453E+02 0.461E+01 -.520E+02   -.447E+02 -.487E+01 0.464E+02   -.447E+00 0.138E+00 0.472E+01
   -.107E+03 0.577E-01 0.924E+02   0.119E+03 -.588E-01 -.920E+02   -.975E+01 -.176E-02 -.301E+00
   0.109E+03 0.161E+00 -.923E+02   -.120E+03 -.163E+00 0.919E+02   0.965E+01 -.643E-03 0.332E+00
   -.160E+02 0.154E+01 -.898E+01   0.242E+02 -.155E+01 0.105E+02   -.690E+01 -.115E+00 -.123E+01
   0.219E+02 0.254E+01 0.946E+01   -.304E+02 -.275E+01 -.108E+02   0.711E+01 0.463E-01 0.110E+01
   -.481E+02 0.677E-01 0.531E+02   0.477E+02 -.663E-01 -.477E+02   0.268E+00 -.103E-02 -.463E+01
   0.490E+02 0.184E+00 -.512E+02   -.484E+02 -.187E+00 0.457E+02   -.400E+00 -.635E-04 0.467E+01
   -.110E+03 0.266E+01 0.912E+02   0.122E+03 -.268E+01 -.906E+02   -.975E+01 -.990E-01 -.454E+00
   0.108E+03 0.382E+01 -.913E+02   -.120E+03 -.390E+01 0.909E+02   0.988E+01 -.437E-01 0.335E+00
   -.211E+02 -.111E+00 -.106E+02   0.295E+02 0.125E+00 0.120E+02   -.710E+01 -.180E-01 -.117E+01
   0.164E+02 0.760E-01 0.116E+02   -.246E+02 -.654E-01 -.132E+02   0.695E+01 -.161E-01 0.126E+01
   -.481E+02 0.514E+01 0.533E+02   0.474E+02 -.536E+01 -.478E+02   0.487E+00 0.107E+00 -.470E+01
   0.474E+02 0.589E+01 -.535E+02   -.468E+02 -.625E+01 0.482E+02   -.368E+00 0.224E+00 0.453E+01
   0.411E+01 -.385E+00 -.664E+01   -.158E-11 -.183E-11 0.476E-12   -.347E+01 0.363E+00 0.625E+01

 POSITION                                       TOTAL-FORCE (eV/Angst)
      1.06880     12.13043      4.32265         0.004614     -0.011468      0.003722
      4.87207      7.58524      5.79790        -0.003960      0.012094      0.002248
      6.98804      7.58385      8.65600        -0.000630      0.008844     -0.004837
      1.89417      7.58290      7.12153         0.003490      0.007105     -0.001069
      9.96622      7.58230      7.32801        -0.006192      0.004343     -0.003431
     10.79531      6.06716      4.33752        -0.001334      0.012338      0.001521
      1.06003      6.07300     10.09903        -0.002368      0.013066     -0.004525
      9.96996      4.55434      7.32442        -0.005047      0.002910     -0.000365
     10.80925      3.03373      4.34112         0.001996     -0.000386      0.004327
      1.05164      3.03372     10.12301         0.001228     -0.000012      0.015410
      9.96691      7.58205      1.53926        -0.003494      0.003404     -0.000657
      7.82449     12.13000      5.67761         0.005116     -0.008723      0.002174
      1.88902      7.59422      1.33339         0.000346      0.008239     -0.006791
      1.04459      3.03390      4.39409         0.012135     -0.000933      0.018879
     10.81030      3.03401     -1.45262         0.009447     -0.001285      0.003096
      9.96788      4.55208      1.53464         0.000183      0.002982     -0.001481
      1.89694      4.59706      1.29502         0.008693      0.008617      0.004541
      6.99379      4.57323      2.87112        -0.005399      0.004618      0.002289
      4.88371      4.55273     -0.01007        -0.001509      0.007372     -0.002210
      7.82799      3.03452     -0.12918         0.005943     -0.001253     -0.003231
      4.87366      7.58519      0.00227        -0.007248      0.006812     -0.010503
      4.03726      6.09426      2.97547        -0.001512      0.009064     -0.003320
      6.98943      7.58672      2.86733         0.005888      0.012712      0.002813
      4.04127     12.12799      8.77896        -0.005180     -0.009041     -0.003050
      4.88236      1.51635      5.81822         0.003585     -0.012250      0.008066
      6.99045      1.51659      8.65774        -0.003716     -0.010659     -0.001047
     10.79812      0.00521     -1.44681        -0.002778     -0.011362     -0.006523
      9.96768      1.51637      1.53507         0.000186     -0.003345     -0.001302
      1.89794      1.47024      1.29392         0.009312     -0.009023      0.002812
      6.99356      1.49558      2.87102        -0.007235     -0.005042      0.001979
      4.88394      1.51551     -0.01063        -0.001660     -0.011140     -0.003700
      4.03714     12.10674      2.97078        -0.002049     -0.009660     -0.007222
      7.82264     12.12826     -0.11929         0.003884     -0.007453     -0.001898
      1.06903      6.06913      4.32263         0.003713      0.011216      0.004640
      7.82242      6.07230     -0.11915         0.003740      0.005648     -0.001613
      7.82971      3.03418      5.67749         0.004693      0.000738      0.003018
     10.79801      6.06291     -1.44681        -0.002462      0.011027     -0.006125
      4.88123      4.55432      5.81825         0.002767      0.015106      0.009820
      6.99149      4.55355      8.65741        -0.003010      0.009197     -0.000822
      1.89229      4.56048      7.14401         0.004514      0.007947      0.014374
      7.82453      6.06999      5.67740         0.005679      0.009694      0.002360
      4.04137      6.07250      8.77919        -0.005252      0.008972     -0.001802
      1.05936     12.12607     10.09877        -0.001709     -0.012376     -0.005482
     10.79501      0.00017      4.33759        -0.001169     -0.011882      0.001348
      9.96968      1.51381      7.32483        -0.004927     -0.002725     -0.000521
      1.89213      1.50738      7.14403         0.004510     -0.008469      0.013892
      4.03586      3.03469      8.78797        -0.006695     -0.000705      0.004638
      1.04701      9.09989      4.32725         0.001019      0.000722      0.001551
     10.80775      9.09981     -1.45052        -0.006649      0.000229     -0.009885
      9.96706     10.61827      1.53901        -0.003655     -0.002744     -0.000645
      1.88806     10.60532      1.33343         0.001146     -0.006956     -0.006848
      6.99027     10.61430      2.86735         0.004735     -0.012946      0.002849
      4.87310     10.61605      0.00200        -0.006670     -0.008467     -0.011334
      4.03475      9.10082      3.00397        -0.008069     -0.000045     -0.003460
      7.82618      9.10049     -0.12755         0.002011     -0.001027     -0.004091
      1.05027      9.09957     10.10913        -0.001160      0.000725     -0.011705
     10.81118      9.09965      4.33894        -0.002457      0.001251      0.002135
      9.96625     10.61754      7.32792        -0.006229     -0.003590     -0.003898
      1.89390     10.61704      7.12191         0.003778     -0.005222     -0.001668
      6.98890     10.61810      8.65607        -0.001805     -0.009875     -0.004834
[...]
      5.95863      9.10097      2.84593        -0.004400     -0.000303      0.000151
      3.88319     10.62223      1.58109        -0.006054     -0.000289     -0.002581
      7.97476     10.62665      1.29081         0.003887      0.000142     -0.003765
      1.94302      9.10041      5.92051        -0.001716     -0.000016     -0.014847
      9.91964      9.10025      8.52941        -0.003493      0.001041      0.007510
     11.83007     10.62551      4.36019        -0.002381      0.007991     -0.004031
      0.02934     10.62146     10.08805        -0.003060      0.007377     -0.003801
      9.81435      9.09962      5.91319        -0.003602      0.001269     -0.004090
      2.04556      9.10021      8.53618        -0.001855      0.000095     -0.003594
      7.87539     10.62771      4.46431         0.001529      0.003185     -0.011819
      3.98275     10.62482      9.98646        -0.001229      0.001614      0.007217
      5.89856      9.10161      5.81412        -0.000966      0.000187     -0.005445
      5.96195      9.10153      8.63394         0.002186     -0.000999     -0.001765
      3.88534     10.62306      7.37254        -0.003444      0.001625     -0.007156
      7.97515     10.62520      7.07818         0.000599      0.003100     -0.000717
    total drift:                                0.376695      0.004455      0.370606

  FREE ENERGIE OF THE ION-ELECTRON SYSTEM (eV)
  free  energy   TOTEN  =     -1521.62001631 eV

  energy  without entropy=    -1521.62001631  energy(sigma->0) =    -1521.62001631

 d Force = 0.1937562E-04[ 0.940E-05, 0.294E-04]  d Energy = 0.8707518E-04-0.677E-04
 d Force = 0.2143448E-01[ 0.211E-01, 0.217E-01]  d Ewald  = 0.2143453E-01-0.526E-07

 reached required accuracy - stopping structural energy minimisation
 writing wavefunctions

 total charge

[...]

 magnetization (x)

# of ion       s       p       d       tot
    1        0.000   0.000  -0.000  -0.000
    2       -0.000  -0.000  -0.000  -0.000
    3        0.000   0.000  -0.000   0.000
    4        0.000   0.000   0.000   0.000
    5        0.000  -0.000  -0.000  -0.000
    6        0.000   0.000  -0.000   0.000
    7        0.000  -0.000  -0.000  -0.000
    8        0.000   0.000   0.000   0.000
    9        0.000  -0.000  -0.000  -0.000
   10        0.000  -0.000  -0.000   0.000
   11        0.000   0.000  -0.000   0.000
   12        0.000   0.000  -0.000   0.000
   13       -0.000   0.000   0.000   0.000
   14        0.002   0.004  -0.001   0.005
   15        0.000   0.000   0.000   0.000
   16        0.000   0.000  -0.000   0.000
   17        0.001   0.002  -0.000   0.003
   18        0.001   0.001   0.000   0.003
   19        0.001   0.001   0.001   0.003
   20       -0.000   0.000  -0.000  -0.000
   21       -0.000  -0.000  -0.000  -0.000
   22        0.001   0.002   0.000   0.004
   23        0.000   0.000   0.000   0.000
   24        0.000   0.000   0.000   0.000
   25        0.002   0.003   0.002   0.006
   26        0.000  -0.000  -0.000   0.000
   27        0.000  -0.000  -0.000  -0.000
   28        0.000   0.000  -0.000   0.000
   29        0.001   0.002  -0.000   0.003
   30        0.001   0.001   0.000   0.003
   31        0.001   0.001   0.001   0.003
   32        0.001   0.002   0.000   0.004
   33        0.000   0.000  -0.000   0.000
   34        0.000   0.000  -0.000  -0.000
   35        0.000   0.000  -0.000   0.000
   36       -0.000  -0.000  -0.000  -0.000
   37        0.000  -0.000  -0.000  -0.000
   38        0.001   0.003   0.002   0.006
   39        0.000  -0.000  -0.000  -0.000
   40        0.000   0.000   0.000   0.000
   41        0.000   0.000  -0.000   0.000
   42        0.000   0.000   0.000   0.000
   43        0.000  -0.000  -0.000  -0.000
   44        0.000   0.000  -0.000   0.000
   45        0.000   0.000   0.000   0.000
   46        0.000   0.000   0.000   0.000
   47       -0.000   0.000   0.000   0.000
   48        0.000  -0.000  -0.000   0.000
   49        0.000   0.000  -0.000   0.000
   50        0.000   0.000  -0.000   0.000
   51       -0.000   0.000   0.000   0.000
   52        0.000   0.000   0.000   0.000
   53       -0.000  -0.000  -0.000  -0.000
   54       -0.000   0.000   0.000   0.000
   55        0.000   0.000   0.000   0.000
   56        0.000   0.000  -0.000   0.000
   57        0.000   0.000  -0.000   0.000
   58        0.000  -0.000  -0.000  -0.000
   59        0.000   0.000   0.000   0.000
   60        0.000   0.000  -0.000   0.000
[...]
  146       -0.000  -0.000   0.000  -0.000
  147        0.000   0.001   0.000   0.001
  148        0.000   0.000   0.000   0.000
  149        0.000  -0.000   0.000  -0.000
  150       -0.000  -0.000   0.000  -0.000
  151        0.000  -0.000   0.000  -0.000
  152       -0.000  -0.000   0.000  -0.000
  153        0.000  -0.000   0.000  -0.000
  154        0.000   0.000   0.000   0.000
  155        0.000   0.000   0.000   0.000
  156       -0.000  -0.000   0.000  -0.000
  157        0.000  -0.000   0.000  -0.000
  158        0.000  -0.000   0.000  -0.000
  159        0.000   0.000   0.000   0.000
  160       -0.000  -0.000   0.000  -0.000
tot          0.061   0.140   3.704   3.905