 vasp.5.4.1 05Feb16 (build May 04 2017 01:30:51) complex

 executed on      LLNL_Quartz_ifc date 2017.11.18  16:03:30

 INCAR:
 POTCAR:   PAW_PBE Ga_d 06Sep2000
 POTCAR:   PAW_PBE O 08Apr2002

 POTCAR:   PAW_PBE Ga_d 06Sep2000
   VRHFIN =Ga: s2p1

   TITEL  = PAW_PBE Ga_d 06Sep2000
   POMASS =   69.723; ZVAL   =   13.000    mass and valenz
   ENMAX  =  282.697; ENMIN  =  212.022 eV
   QCUT   =   -4.558; QGAM   =    9.117    optimization parameters

   Description
     l     E      TYP  RCUT    TYP  RCUT
     2   .000     23  2.300
     2  -.400     23  2.300
     0   .000     23  2.300
     0   .000     23  2.300
     1   .000     23  2.300
     1   .000     23  2.300
     3  -.100      7  2.300

 POTCAR:   PAW_PBE O 08Apr2002
   VRHFIN =O: s2p4

   TITEL  = PAW_PBE O 08Apr2002
   POMASS =   16.000; ZVAL   =    6.000    mass and valenz
   ENMAX  =  400.000; ENMIN  =  300.000 eV
   QCUT   =   -5.520; QGAM   =   11.041    optimization parameters

   Description
     l     E      TYP  RCUT    TYP  RCUT
     0   .000     23  1.200
     0  -.700     23  1.200
     1   .000     23  1.520
     1   .600     23  1.520
     2   .000      7  1.500

 Optimization of the real space projectors (new method)

 maximal supplied QI-value         = 16.25
 optimisation between [QCUT,QGAM] = [ 10.24, 20.48] = [ 29.35,117.42] Ry
 Optimized for a Real-space Cutoff    1.38 Angstroem

   l    n(q)    QCUT    max X(q) W(low)/X(q) W(high)/X(q)  e(spline)
   2      7    10.239     6.328    0.33E-04    0.68E-04    0.30E-07
   2      7    10.239     9.625    0.20E-03    0.23E-03    0.80E-07
   0      8    10.239     9.711    0.17E-04    0.17E-04    0.13E-07
   0      8    10.239    32.764    0.56E-04    0.14E-03    0.62E-07
   1      8    10.239     7.413    0.78E-04    0.28E-04    0.38E-07
   1      8    10.239    31.472    0.43E-03    0.30E-03    0.73E-07
 Optimization of the real space projectors (new method)

 maximal supplied QI-value         = 24.76
 optimisation between [QCUT,QGAM] = [ 10.15, 20.30] = [ 28.85,115.39] Ry
 Optimized for a Real-space Cutoff    1.30 Angstroem

   l    n(q)    QCUT    max X(q) W(low)/X(q) W(high)/X(q)  e(spline)
   0      8    10.150     4.192    0.55E-04    0.58E-04    0.78E-07
   0      8    10.150     8.473    0.46E-03    0.68E-03    0.23E-06
   1      7    10.150     2.474    0.11E-03    0.93E-04    0.33E-07
   1      7    10.150     3.912    0.46E-03    0.50E-03    0.15E-06
 PAW_PBE Ga_d 06Sep2000                 :
 PAW_PBE O 08Apr2002                    :

 POSCAR: Ga  O
  positions in direct lattice
  velocities in cartesian coordinates
 exchange correlation table for  LEXCH =        8
   RHO(1)=    0.500       N(1)  =     2000
   RHO(2)=  100.500       N(2)  =     4000

 ion  position               nearest neighbor table
   1  0.500  0.376  0.250-  68 1.97  82 1.97 123 1.97 122 1.97  91 2.03 121 2.03  22 2.92  35 2.92

   2  0.091  0.000  0.397-  98 1.82 107 1.82 139 1.83 105 1.85
   3  0.410  0.624  0.605-  71 1.82  84 1.83 156 1.84 120 1.86
   4  0.590  0.624  0.895-  70 1.82  85 1.83 157 1.84 135 1.86
   5  0.160  0.624  0.656-  79 1.93  77 1.94 148 1.95 120 2.00  74 2.01 153 2.10
   6  0.840  0.624  0.844-  78 1.93  76 1.94 149 1.95 135 2.00  75 2.01 152 2.10
   7  0.909  0.499  0.605-  89 1.82 117 1.83  77 1.84  75 1.85
   8  0.091  0.499  0.895-  67 1.82 116 1.83  76 1.84  74 1.85
   9  0.838  0.375  0.846-  78 1.94 118 1.94  64 1.96 116 1.96  75 2.09 115 2.10
  10  0.910  0.250  0.605- 130 1.83 117 1.83  96 1.84 115 1.85
  11  0.090  0.250  0.895- 131 1.83 116 1.83  95 1.84  92 1.85
  12  0.840  0.625  0.344-  89 1.93  88 1.93 137 1.95  80 1.97  87 2.06 140 2.09
  13  0.659  0.002  0.655- 101 1.93 113 1.93 154 1.94  94 2.02 132 2.04 159 2.10
  14  0.160  0.625  0.156-  67 1.93  69 1.93 136 1.95  81 1.97  86 2.06 141 2.09
  15  0.085  0.251  0.394- 119 1.83 128 1.83 107 1.84 126 1.86
  16  0.915  0.251  0.106- 118 1.83 129 1.83 108 1.84 127 1.86
  17  0.830  0.375  0.347-  89 1.91 130 1.92  91 1.95 128 2.02  87 2.14 127 2.15
  18  0.170  0.375  0.153-  67 1.91 131 1.92 121 1.95 129 2.02  86 2.14 126 2.15
  19  0.338  0.252  0.349- 122 1.90 124 1.94 103 1.94 126 2.00 121 2.02 100 2.16
  20  0.662  0.252  0.151- 123 1.90 125 1.94 104 1.94 127 2.00  91 2.02  99 2.16
  21  0.413  0.614  0.106-  68 1.80  72 1.84  81 1.87 144 1.88
  22  0.338  0.499  0.348-  82 1.89 124 1.93  84 1.94  86 2.00 121 2.01  81 2.15   1 2.92
  23  0.587  0.614  0.394-  82 1.80  73 1.84  80 1.87 145 1.88
  24  0.341  0.002  0.845- 112 1.93 114 1.93 155 1.94  93 2.02 133 2.04 158 2.10
  25  0.410  0.125  0.605-  83 1.82 103 1.83 113 1.83 133 1.85
  26  0.590  0.125  0.895-  66 1.82 104 1.83 114 1.83 132 1.85
  27  0.909  0.000  0.103-  97 1.82 108 1.82 138 1.83 106 1.85
  28  0.839  0.124  0.343- 130 1.92 107 1.94 109 1.94  99 1.98 127 2.06 106 2.08
  29  0.161  0.124  0.157- 131 1.92 108 1.94 110 1.94 100 1.98 126 2.06 105 2.08
  30  0.586  0.136  0.394- 122 1.81 101 1.84  99 1.87 102 1.89
  31  0.414  0.136  0.106- 123 1.81 112 1.84 100 1.87 111 1.89
  32  0.343  0.001  0.343- 102 1.92 103 1.94 143 1.95 105 2.03 100 2.04 146 2.07
  33  0.657  0.001  0.157- 111 1.92 104 1.94 142 1.95 106 2.03  99 2.04 147 2.07
  34  0.086  0.499  0.394- 128 1.82  79 1.83  88 1.83  86 1.86
  35  0.662  0.499  0.152-  68 1.89 125 1.93  85 1.94  87 2.00  91 2.01  80 2.15   1 2.92
  36  0.660  0.255  0.648- 134 1.81 101 1.94  83 1.95 115 2.05  64 2.16 132 2.20  41 2.92
  37  0.914  0.499  0.106- 129 1.82  78 1.83  69 1.83  87 1.86
  38  0.414  0.375  0.603- 124 1.81  71 1.83  83 1.83  65 1.85
  39  0.586  0.375  0.897- 125 1.81  70 1.83  66 1.83  64 1.85
  40  0.162  0.375  0.654-  79 1.94 119 1.94  65 1.96 117 1.96  74 2.09  92 2.10
  41  0.660  0.495  0.650- 134 1.81  73 1.94  71 1.94  75 2.05  64 2.14 135 2.17  36 2.92
  42  0.340  0.495  0.850-  90 1.81  72 1.94  70 1.94  74 2.05  65 2.14 120 2.17  47 2.92
  43  0.090  1.000  0.897- 110 1.82  95 1.82 151 1.83  93 1.86
  44  0.910  1.000  0.603- 109 1.82  96 1.82 150 1.83  94 1.86
  45  0.840  0.126  0.843- 118 1.93  95 1.94  97 1.95 132 2.00 115 2.01  94 2.09
  46  0.160  0.126  0.657- 119 1.93  96 1.94  98 1.95 133 2.00  92 2.01  93 2.09
  47  0.340  0.255  0.852-  90 1.81 112 1.94  66 1.95  92 2.05  65 2.16 133 2.20  42 2.92
  48  0.089  0.750  0.396- 148 1.83  88 1.83 139 1.83 141 1.86
  49  0.911  0.750  0.104- 149 1.83  69 1.83 138 1.83 140 1.86
  50  0.840  0.875  0.343- 109 1.93 137 1.93 139 1.94 147 2.01 106 2.05 140 2.06
  51  0.160  0.875  0.157- 110 1.93 136 1.93 138 1.94 146 2.01 105 2.05 141 2.06
  52  0.588  0.875  0.396- 154 1.83 102 1.84 145 1.84 147 1.86
  53  0.412  0.875  0.104- 155 1.83 111 1.84 144 1.84 146 1.86
  54  0.343  0.749  0.343- 145 1.92  84 1.94 143 1.96 141 2.03  81 2.05 146 2.08
  55  0.657  0.749  0.157- 144 1.92  85 1.94 142 1.96 140 2.03  80 2.05 147 2.08
  56  0.089  0.750  0.897- 136 1.82  76 1.83 151 1.83 153 1.86
  57  0.911  0.750  0.603- 137 1.82  77 1.83 150 1.83 152 1.86
  58  0.840  0.875  0.843- 151 1.94  97 1.94 149 1.94 159 2.00  94 2.06 152 2.07
  59  0.160  0.875  0.657- 150 1.94  98 1.94 148 1.94 158 2.00  93 2.06 153 2.07
  60  0.590  0.875  0.896- 142 1.83 114 1.83 157 1.83 159 1.86
  61  0.410  0.875  0.604- 143 1.83 113 1.83 156 1.83 158 1.86
[...]
 145  0.505  0.747  0.373-  52 1.84  23 1.88  54 1.92
 146  0.329  0.875  0.219-  53 1.86  51 2.01  32 2.07  54 2.08
 147  0.671  0.875  0.281-  52 1.86  50 2.01  33 2.07  55 2.08
 148  0.163  0.750  0.553-  48 1.83  59 1.94   5 1.95
 149  0.837  0.750  0.947-  49 1.83  58 1.94   6 1.95
 150  0.998  0.876  0.628-  44 1.83  57 1.83  59 1.94
 151  0.002  0.876  0.872-  43 1.83  56 1.83  58 1.94
 152  0.828  0.751  0.718-  57 1.86  63 2.02  58 2.07   6 2.10
 153  0.172  0.751  0.782-  56 1.86  62 2.02  59 2.07   5 2.10
 154  0.663  0.876  0.553-  52 1.83  13 1.94  63 1.94
 155  0.337  0.876  0.947-  53 1.83  24 1.94  62 1.94
 156  0.497  0.750  0.628-  61 1.83   3 1.84  63 1.93
 157  0.503  0.750  0.872-  60 1.83   4 1.84  62 1.93
 158  0.328  0.875  0.719-  61 1.86  59 2.00  24 2.10  62 2.11
 159  0.672  0.875  0.781-  60 1.86  58 2.00  13 2.10  63 2.11

  LATTYP: Found a simple monoclinic cell.
 ALAT       =    14.6889751464
 B/A-ratio  =     0.8259161174
 C/A-ratio  =     1.5972413798
 COS(beta)  =    -0.9171837574

  Lattice vectors:

 A1 = ( -11.8609006218,   0.0000000000,  -8.6651617002)
 A2 = (   0.0000000000, -12.1318613217,   0.0000000000)
 A3 = (  11.8609006218,   0.0000000000,  20.2429474736)

Analysis of symmetry for initial positions (statically):
 Subroutine PRICEL returns:
 Original cell was already a primitive cell.

 Routine SETGRP: Setting up the symmetry group for a
 simple monoclinic supercell.

 Subroutine GETGRP returns: Found  2 space group operations
 (whereof  1 operations were pure point group operations)
 out of a pool of  4 trial point group operations.

The static configuration has the point symmetry C_1 .
 The point group associated with its full space group is C_2 .

Analysis of symmetry for dynamics (positions and initial velocities):
 Subroutine PRICEL returns:
 Original cell was already a primitive cell.

 Routine SETGRP: Setting up the symmetry group for a
 simple monoclinic supercell.

 Subroutine GETGRP returns: Found  2 space group operations
 (whereof  1 operations were pure point group operations)
 out of a pool of  4 trial point group operations.

The dynamic configuration has the point symmetry C_1 .
 The point group associated with its full space group is C_2 .

 Subroutine INISYM returns: Found  2 space group operations
 (whereof  1 operations are pure point group operations),
 and found     1 'primitive' translations

 KPOINTS: KPOINTS created by Atomic Simulation Env
  k-points in reciprocal lattice
Space group operators:
 irot       det(A)        alpha          n_x          n_y          n_z        tau_x        tau_y        tau_z
    1     1.000000     0.000000     1.000000     0.000000     0.000000     0.000000     0.000000     0.000000
    2     1.000000   180.000000     0.000000     1.000000     0.000000     0.000000     0.000000     0.500000

 Subroutine IBZKPT_HF returns following result:

 Found      4 k-points in 1st BZ
 the following      4 k-points will be used (e.g. in the exchange kernel)
 Following reciprocal coordinates:   # in IRBZ
  0.250000  0.250000  0.250000    0.25000000   1 t-inv F
 -0.250000  0.250000 -0.250000    0.25000000   1 t-inv F
 -0.250000 -0.250000 -0.250000    0.25000000   1 t-inv T
  0.250000 -0.250000  0.250000    0.25000000   1 t-inv T

 I would recommend the setting:
   dimension x,y,z NGX =    60 NGY =   59 NGZ =   57
 SYSTEM =  unknown system
 POSCAR =  Ga  O

 Startparameter for this run:
   NWRITE =      2    write-flag & timer
   PREC   = normal    normal or accurate (medium, high low for compatibility)
   ISTART =      1    job   : 0-new  1-cont  2-samecut
   ICHARG =      0    charge: 1-file 2-atom 10-const
   ISPIN  =      1    spin polarized calculation?
   LNONCOLLINEAR =      F non collinear calculations
   LSORBIT =      F    spin-orbit coupling
   INIWAV =      1    electr: 0-lowe 1-rand  2-diag
   LASPH  =      F    aspherical Exc in radial PAW
[...]
   -.116E+03 0.212E+02 -.316E+02   0.114E+03 -.214E+02 0.336E+02   0.186E+01 0.102E+00 -.181E+01
   -.175E+02 0.723E+01 -.543E+02   0.160E+02 -.689E+01 0.594E+02   0.132E+01 -.319E+00 -.474E+01
   0.113E+03 -.262E+02 0.298E+02   -.112E+03 0.261E+02 -.319E+02   -.152E+01 0.670E-01 0.183E+01
   -.113E+03 -.262E+02 -.298E+02   0.112E+03 0.261E+02 0.319E+02   0.152E+01 0.670E-01 -.183E+01
   -.737E+01 0.205E+02 -.934E+02   0.719E+01 -.217E+02 0.978E+02   0.145E+00 0.112E+01 -.405E+01
   0.501E+02 -.190E+02 0.950E+02   -.518E+02 0.202E+02 -.996E+02   0.157E+01 -.112E+01 0.426E+01
   0.737E+01 0.205E+02 0.934E+02   -.719E+01 -.217E+02 -.978E+02   -.145E+00 0.112E+01 0.405E+01
   -.628E+02 -.228E+02 -.463E+01   0.615E+02 0.228E+02 0.709E+01   0.120E+01 -.257E-01 -.221E+01
   0.628E+02 -.228E+02 0.463E+01   -.615E+02 0.228E+02 -.709E+01   -.120E+01 -.257E-01 0.221E+01
   0.575E+02 0.691E+01 -.149E+03   -.595E+02 -.655E+01 0.155E+03   0.187E+01 -.337E+00 -.550E+01
   -.575E+02 0.691E+01 0.149E+03   0.595E+02 -.655E+01 -.155E+03   -.187E+01 -.337E+00 0.550E+01
   -.450E+02 0.299E+02 -.994E+02   0.494E+02 -.267E+02 0.102E+03   -.407E+01 -.293E+01 -.210E+01
   0.450E+02 0.299E+02 0.994E+02   -.494E+02 -.267E+02 -.102E+03   0.407E+01 -.293E+01 0.210E+01
   0.929E+02 0.100E+03 0.594E+02   -.899E+02 -.102E+03 -.609E+02   -.269E+01 0.175E+01 0.142E+01
   -.452E+02 -.297E+02 -.100E+03   0.497E+02 0.265E+02 0.102E+03   -.411E+01 0.295E+01 -.215E+01
   -.929E+02 0.100E+03 -.594E+02   0.899E+02 -.102E+03 0.609E+02   0.269E+01 0.175E+01 -.142E+01
   -.501E+02 -.190E+02 -.950E+02   0.518E+02 0.202E+02 0.996E+02   -.157E+01 -.112E+01 -.426E+01
   0.422E+02 -.426E+02 0.165E+02   -.403E+02 0.429E+02 -.185E+02   -.170E+01 -.243E+00 0.176E+01
   -.422E+02 -.426E+02 -.165E+02   0.403E+02 0.429E+02 0.185E+02   0.170E+01 -.243E+00 -.176E+01
   0.892E+02 -.831E+01 0.176E+02   -.867E+02 0.841E+01 -.198E+02   -.226E+01 -.883E-01 0.200E+01
   -.385E+01 -.331E+02 -.938E+02   0.382E+01 0.339E+02 0.982E+02   -.787E-02 -.732E+00 -.409E+01
   0.385E+01 -.331E+02 0.938E+02   -.382E+01 0.339E+02 -.982E+02   0.787E-02 -.732E+00 0.409E+01
   -.883E+02 -.109E+03 -.566E+02   0.860E+02 0.111E+03 0.582E+02   0.206E+01 -.143E+01 -.138E+01
   0.883E+02 -.109E+03 0.566E+02   -.860E+02 0.111E+03 -.582E+02   -.206E+01 -.143E+01 0.138E+01
   -.616E+02 -.626E+01 -.652E+02   0.643E+02 0.721E+01 0.689E+02   -.252E+01 -.873E+00 -.344E+01
   0.616E+02 -.626E+01 0.652E+02   -.643E+02 0.721E+01 -.689E+02   0.252E+01 -.873E+00 0.344E+01
   -.646E+02 0.185E+02 -.647E+01   0.629E+02 -.187E+02 0.884E+01   0.150E+01 0.197E+00 -.213E+01
   0.452E+02 -.297E+02 0.100E+03   -.497E+02 0.265E+02 -.102E+03   0.411E+01 0.295E+01 0.215E+01
   0.890E+02 -.132E+02 0.133E+03   -.893E+02 0.233E+02 -.146E+03   0.322E+00 -.917E+01 0.113E+02
   0.646E+02 0.185E+02 0.647E+01   -.629E+02 -.187E+02 -.884E+01   -.150E+01 0.197E+00 0.213E+01
   -.374E+02 0.641E+01 0.349E+02   0.354E+02 -.613E+01 -.369E+02   0.178E+01 -.258E+00 0.186E+01
   0.374E+02 0.641E+01 -.349E+02   -.354E+02 -.613E+01 0.369E+02   -.178E+01 -.258E+00 -.186E+01
   0.175E+02 0.723E+01 0.543E+02   -.160E+02 -.689E+01 -.594E+02   -.132E+01 -.319E+00 0.474E+01
   0.912E+02 0.119E+02 0.132E+03   -.916E+02 -.220E+02 -.144E+03   0.398E+00 0.910E+01 0.113E+02
   -.912E+02 0.119E+02 -.132E+03   0.916E+02 -.220E+02 0.144E+03   -.398E+00 0.910E+01 -.113E+02
   -.961E+02 -.106E+02 -.166E+02   0.938E+02 0.112E+02 0.191E+02   0.208E+01 -.518E+00 -.229E+01
   0.961E+02 -.106E+02 0.166E+02   -.938E+02 0.112E+02 -.191E+02   -.208E+01 -.518E+00 0.229E+01
   -.111E+02 -.774E+01 -.715E+02   0.118E+02 0.959E+01 0.750E+02   -.697E+00 -.170E+01 -.328E+01
   0.111E+02 -.774E+01 0.715E+02   -.118E+02 0.959E+01 -.750E+02   0.697E+00 -.170E+01 0.328E+01
   -.890E+02 -.132E+02 -.133E+03   0.893E+02 0.233E+02 0.146E+03   -.322E+00 -.917E+01 -.113E+02
   -.849E+02 0.119E+02 -.160E+02   0.830E+02 -.119E+02 0.182E+02   0.171E+01 -.404E-01 -.198E+01
   0.849E+02 0.119E+02 0.160E+02   -.830E+02 -.119E+02 -.182E+02   -.171E+01 -.404E-01 0.198E+01
   -.120E+02 0.686E+01 -.796E+02   0.131E+02 -.671E+01 0.841E+02   -.106E+01 -.143E+00 -.425E+01
   0.120E+02 0.686E+01 0.796E+02   -.131E+02 -.671E+01 -.841E+02   0.106E+01 -.143E+00 0.425E+01
   -.623E+02 0.638E+01 -.149E+02   0.610E+02 -.601E+01 0.172E+02   0.117E+01 -.322E+00 -.212E+01
   0.623E+02 0.638E+01 0.149E+02   -.610E+02 -.601E+01 -.172E+02   -.117E+01 -.322E+00 0.212E+01
   -.604E+02 0.590E+01 -.671E+02   0.628E+02 -.680E+01 0.708E+02   -.230E+01 0.837E+00 -.345E+01
   0.604E+02 0.590E+01 0.671E+02   -.628E+02 -.680E+01 -.708E+02   0.230E+01 0.837E+00 0.345E+01
   -.913E+02 0.149E+02 -.136E+02   0.896E+02 -.154E+02 0.162E+02   0.157E+01 0.394E+00 -.235E+01
   0.913E+02 0.149E+02 0.136E+02   -.896E+02 -.154E+02 -.162E+02   -.157E+01 0.394E+00 0.235E+01
   -.219E+02 0.819E+01 -.713E+02   0.227E+02 -.798E+01 0.757E+02   -.677E+00 -.195E+00 -.404E+01
   0.219E+02 0.819E+01 0.713E+02   -.227E+02 -.798E+01 -.757E+02   0.677E+00 -.195E+00 0.404E+01
   -.640E+02 0.776E+01 -.190E+02   0.619E+02 -.752E+01 0.214E+02   0.182E+01 -.218E+00 -.215E+01
[...]
   -.569E+02 0.394E+01 0.603E+02   0.561E+02 -.402E+01 -.552E+02   0.561E+00 -.174E-01 -.436E+01
   0.569E+02 0.394E+01 -.603E+02   -.561E+02 -.402E+01 0.552E+02   -.561E+00 -.174E-01 0.436E+01
   -.113E+03 0.552E+01 0.874E+02   0.125E+03 -.584E+01 -.864E+02   -.939E+01 0.253E+00 -.763E+00
   0.113E+03 0.552E+01 -.874E+02   -.125E+03 -.584E+01 0.864E+02   0.939E+01 0.253E+00 0.763E+00
   -.182E+02 0.220E+01 -.115E+02   0.266E+02 -.210E+01 0.132E+02   -.703E+01 -.218E+00 -.133E+01
   0.182E+02 0.220E+01 0.115E+02   -.266E+02 -.210E+01 -.132E+02   0.703E+01 -.218E+00 0.133E+01
   -.344E+02 0.965E+01 0.548E+02   0.335E+02 -.101E+02 -.492E+02   0.694E+00 0.367E+00 -.480E+01
   0.344E+02 0.965E+01 -.548E+02   -.335E+02 -.101E+02 0.492E+02   -.694E+00 0.367E+00 0.480E+01
   -.101E+03 0.182E+01 0.950E+02   0.112E+03 -.165E+01 -.944E+02   -.956E+01 -.258E+00 -.473E+00
   0.101E+03 0.182E+01 -.950E+02   -.112E+03 -.165E+01 0.944E+02   0.956E+01 -.258E+00 0.473E+00
   -.229E+02 0.112E+02 -.667E+01   0.310E+02 -.114E+02 0.829E+01   -.679E+01 0.154E+00 -.131E+01
   0.229E+02 0.112E+02 0.667E+01   -.310E+02 -.114E+02 -.829E+01   0.679E+01 0.154E+00 0.131E+01
   -.576E+02 0.487E+01 0.416E+02   0.576E+02 -.495E+01 -.351E+02   -.261E-01 -.199E-01 -.553E+01
   0.576E+02 0.487E+01 -.416E+02   -.576E+02 -.495E+01 0.351E+02   0.261E-01 -.199E-01 0.553E+01
   0.309E-07 0.247E+01 -.170E-03   -.689E-12 0.284E-12 -.185E-12   0.355E-14 -.218E+01 -.266E-14

 POSITION                                       TOTAL-FORCE (eV/Angst)
      5.93045      4.55931      1.43813         0.000000     -0.009792      0.000000
      1.07326      0.00174      4.32804         0.008683      0.006018      0.004639
      4.86779      7.57617      5.81260         0.000993     -0.007546      0.001853
      6.99311      7.57617      8.64146        -0.000993     -0.007546     -0.001853
      1.89203      7.56790      7.13356        -0.003343     -0.005185     -0.001135
      9.96887      7.56790      7.32049         0.003343     -0.005185      0.001135
     10.78312      6.05629      4.35228        -0.004991      0.000007      0.001864
      1.07778      6.05629     10.10177         0.004991      0.000007     -0.001864
      9.94424      4.54879      7.35044         0.003279      0.001099      0.002384
     10.79853      3.03690      4.34909         0.005315      0.000410      0.004669
      1.06237      3.03690     10.10496        -0.005315      0.000410     -0.004669
      9.95904      7.58366      1.53436         0.006907     -0.001439     -0.001427
      7.81332      0.02227      5.66184        -0.001214      0.005058     -0.003197
      1.90186      7.58366      1.34191        -0.006907     -0.001439      0.001427
      1.01216      3.04264      4.31697        -0.005930      0.004438      0.002553
     10.84874      3.04264     -1.44070         0.005930      0.004438     -0.002553
      9.84182      4.54900      1.60365         0.000021      0.000174      0.006139
      2.01908      4.54900      1.27262        -0.000021      0.000174     -0.006139
      4.00759      3.05580      3.05443         0.004072      0.000157     -0.001342
      7.85331      3.05580     -0.17816        -0.004072      0.000157      0.001342
      4.89290      7.44941      0.02653        -0.002579     -0.014307     -0.002844
      4.00709      6.05051      3.04824        -0.008754     -0.002061      0.001665
      6.96800      7.44941      2.84974         0.002579     -0.014307      0.002844
      4.04758      0.02227      8.79222         0.001214      0.005058      0.003197
      4.86578      1.51645      5.81347        -0.000503     -0.002545     -0.004103
      6.99512      1.51645      8.64059         0.000503     -0.002545      0.004103
     10.78764      0.00174     -1.45177        -0.008683      0.006018     -0.004639
      9.95607      1.51013      1.52973        -0.007487      0.002943     -0.000919
      1.90483      1.51013      1.34654         0.007487      0.002943      0.000919
      6.95562      1.64985      2.84940         0.003088     -0.000918     -0.005026
      4.90529      1.64985      0.02687        -0.003088     -0.000918      0.005026
      4.07124      0.01519      2.96646         0.006266      0.003399      0.001478
      7.78967      0.01519     -0.09019        -0.006266      0.003399     -0.001478
      1.02508      6.05416      4.31436         0.000173      0.000264      0.002372
      7.85381      6.05051     -0.17197         0.008754     -0.002061     -0.001665
      7.83394      3.09352      5.57598         0.002632      0.003372     -0.004894
     10.83582      6.05416     -1.43810        -0.000173      0.000264     -0.002372
      4.90615      4.54718      5.77481         0.001518      0.001713      0.003785
      6.95475      4.54718      8.67924        -0.001518      0.001713     -0.003785
      1.91666      4.54879      7.10361        -0.003279      0.001099     -0.002384
      7.83103      6.00963      5.59718         0.005382      0.002263      0.011513
      4.02987      6.00963      8.85687        -0.005382      0.002263     -0.011513
      1.06465     12.13056     10.12174         0.006961      0.000503      0.002531
     10.79625     12.13056      4.33231        -0.006961      0.000503     -0.002531
      9.96676      1.52348      7.31713        -0.001062      0.000342      0.000000
      1.89414      1.52348      7.13692         0.001062      0.000342     -0.000000
      4.02696      3.09352      8.87807        -0.002632      0.003372      0.004894
      1.05849      9.10068      4.32892        -0.002543     -0.002549      0.001801
     10.80241      9.10068     -1.45265         0.002543     -0.002549     -0.001801
      9.96327     10.62002      1.52133        -0.003951      0.003107     -0.002188
      1.89763     10.62002      1.35494         0.003951      0.003107      0.002188
      6.97338     10.61255      2.87556        -0.006282      0.016833     -0.001589
      4.88752     10.61255      0.00071         0.006282      0.016833      0.001589
      4.06603      9.08489      2.97623         0.008178      0.000692      0.000337
      7.79487      9.08489     -0.09996        -0.008178      0.000692     -0.000337
      1.04991      9.10136     10.12220        -0.007176     -0.000543     -0.003240
     10.81100      9.10136      4.33185         0.007176     -0.000543      0.003240
      9.95909     10.61827      7.31060        -0.002582     -0.000140     -0.002910
      1.90181     10.61827      7.14345         0.002582     -0.000140      0.002910
      6.99474     10.61673      8.66162        -0.006863      0.004155     -0.003486
[...]
      5.98651      9.05660      2.85136         0.004197     -0.023803      0.000860
      3.89991     10.62020      1.58148         0.010277     -0.002911      0.001680
      7.96099     10.62020      1.29479        -0.010277     -0.002911     -0.001680
      1.93209      9.10321      5.93337        -0.008907      0.002945      0.003267
      9.92881      9.10321      8.52069         0.008907      0.002945     -0.003267
     11.83254     10.62395      4.36846         0.001955      0.001265      0.003549
      0.02836     10.62395     10.08559        -0.001955      0.001265     -0.003549
      9.81655      9.11076      5.90376        -0.000939      0.003390     -0.008635
      2.04435      9.11076      8.55030         0.000939      0.003390      0.008635
      7.86741     10.62292      4.47279        -0.011897     -0.000400      0.000904
      3.99349     10.62292      9.98127         0.011897     -0.000400     -0.000904
      5.89215      9.10100      5.82405         0.006602     -0.011564      0.000775
      5.96875      9.10100      8.63001        -0.006602     -0.011564     -0.000775
      3.88516     10.62001      7.37028         0.003230     -0.003414      0.000313
      7.97574     10.62001      7.08377        -0.003230     -0.003414     -0.000313
    total drift:                                0.000000     -0.316577     -0.000170

  FREE ENERGIE OF THE ION-ELECTRON SYSTEM (eV)
  free  energy   TOTEN  =     -1489.44115728 eV

  energy  without entropy=    -1489.44115728  energy(sigma->0) =    -1489.44115728

 d Force = 0.6343696E-05[-0.191E-04, 0.317E-04]  d Energy = 0.1326769E-04-0.692E-05
 d Force =-0.2948473E-01[-0.297E-01,-0.293E-01]  d Ewald  =-0.2948753E-01 0.280E-05

 reached required accuracy - stopping structural energy minimisation
 writing wavefunctions

 total charge

# of ion     s       p       d       tot
  1        0.649   0.813  10.270  11.733
  2        0.760   1.025  10.313  12.099
  3        0.759   1.018  10.308  12.085
  4        0.759   1.018  10.308  12.085
  5        0.660   0.837  10.277  11.773
  6        0.660   0.837  10.277  11.774
  7        0.756   1.014  10.309  12.079
  8        0.756   1.014  10.309  12.079
  9        0.658   0.824  10.268  11.750
 10        0.755   1.006  10.304  12.064
 11        0.755   1.006  10.304  12.064
 12        0.661   0.840  10.279  11.781
 13        0.659   0.834  10.275  11.768
 14        0.661   0.840  10.279  11.781
 15        0.758   1.014  10.306  12.078
 16        0.758   1.014  10.306  12.078
 17        0.653   0.804  10.253  11.711
 18        0.653   0.804  10.253  11.711
 19        0.675   0.858  10.284  11.817
 20        0.675   0.858  10.284  11.817
 21        0.747   0.979  10.289  12.015
 22        0.677   0.869  10.293  11.839
 23        0.747   0.979  10.289  12.015
 24        0.659   0.834  10.275  11.768
 25        0.760   1.021  10.310  12.091
 26        0.760   1.021  10.310  12.091
 27        0.760   1.025  10.313  12.099
 28        0.661   0.844  10.282  11.787
 29        0.661   0.844  10.282  11.787
 30        0.745   0.971  10.284  12.000
 31        0.745   0.971  10.284  12.000
 32        0.659   0.834  10.275  11.769
 33        0.659   0.834  10.275  11.769
 34        0.760   1.024  10.312  12.095
 35        0.677   0.869  10.293  11.839
 36        0.689   0.850  10.272  11.811
 37        0.760   1.024  10.312  12.095
 38        0.766   1.041  10.321  12.127
 39        0.766   1.041  10.321  12.127
 40        0.658   0.824  10.268  11.750
 41        0.690   0.860  10.280  11.830
 42        0.690   0.860  10.280  11.830
 43        0.762   1.031  10.317  12.110
 44        0.762   1.031  10.317  12.110
 45        0.660   0.841  10.280  11.781
 46        0.660   0.841  10.280  11.781
 47        0.689   0.850  10.272  11.811
 48        0.758   1.016  10.307  12.081
 49        0.758   1.016  10.307  12.081
 50        0.659   0.838  10.278  11.775
 51        0.659   0.838  10.278  11.775
 52        0.753   0.996  10.296  12.045
 53        0.753   0.996  10.296  12.045
 54        0.657   0.823  10.267  11.748
 55        0.657   0.823  10.267  11.748
 56        0.760   1.021  10.310  12.092
 57        0.760   1.021  10.310  12.092
 58        0.659   0.837  10.277  11.773
 59        0.659   0.837  10.277  11.773
 60        0.759   1.020  10.309  12.089
[...]
145        1.577   3.601   0.000   5.178
146        1.584   3.575   0.000   5.160
147        1.584   3.575   0.000   5.160
148        1.580   3.584   0.000   5.164
149        1.580   3.584   0.000   5.164
150        1.578   3.618   0.000   5.196
151        1.578   3.618   0.000   5.196
152        1.584   3.573   0.000   5.157
153        1.584   3.573   0.000   5.157
154        1.580   3.584   0.000   5.164
155        1.580   3.584   0.000   5.164
156        1.578   3.615   0.000   5.193
157        1.578   3.615   0.000   5.193
158        1.585   3.572   0.000   5.157
159        1.585   3.572   0.000   5.157
tot      196.447 402.687 648.2791247.413