 vasp.5.4.1 05Feb16 (build May 04 2017 01:30:51) complex

 executed on      LLNL_Quartz_ifc date 2018.08.14  17:21:54

 INCAR:
 POTCAR:   PAW_PBE Ga_d 06Sep2000
 POTCAR:   PAW_PBE O 08Apr2002

 POTCAR:   PAW_PBE Ga_d 06Sep2000
   VRHFIN =Ga: s2p1

   TITEL  = PAW_PBE Ga_d 06Sep2000
   POMASS =   69.723; ZVAL   =   13.000    mass and valenz
   ENMAX  =  282.697; ENMIN  =  212.022 eV
   QCUT   =   -4.558; QGAM   =    9.117    optimization parameters

   Description
     l     E      TYP  RCUT    TYP  RCUT
     2   .000     23  2.300
     2  -.400     23  2.300
     0   .000     23  2.300
     0   .000     23  2.300
     1   .000     23  2.300
     1   .000     23  2.300
     3  -.100      7  2.300

 POTCAR:   PAW_PBE O 08Apr2002
   VRHFIN =O: s2p4

   TITEL  = PAW_PBE O 08Apr2002
   POMASS =   16.000; ZVAL   =    6.000    mass and valenz
   ENMAX  =  400.000; ENMIN  =  300.000 eV
   QCUT   =   -5.520; QGAM   =   11.041    optimization parameters

   Description
     l     E      TYP  RCUT    TYP  RCUT
     0   .000     23  1.200
     0  -.700     23  1.200
     1   .000     23  1.520
     1   .600     23  1.520
     2   .000      7  1.500

 Optimization of the real space projectors (new method)

 maximal supplied QI-value         = 16.25
 optimisation between [QCUT,QGAM] = [ 10.24, 20.48] = [ 29.35,117.42] Ry
 Optimized for a Real-space Cutoff    1.38 Angstroem

   l    n(q)    QCUT    max X(q) W(low)/X(q) W(high)/X(q)  e(spline)
   2      7    10.239     6.328    0.33E-04    0.68E-04    0.30E-07
   2      7    10.239     9.625    0.20E-03    0.23E-03    0.80E-07
   0      8    10.239     9.711    0.17E-04    0.17E-04    0.13E-07
   0      8    10.239    32.764    0.56E-04    0.14E-03    0.62E-07
   1      8    10.239     7.413    0.78E-04    0.28E-04    0.38E-07
   1      8    10.239    31.472    0.43E-03    0.30E-03    0.73E-07
 Optimization of the real space projectors (new method)

 maximal supplied QI-value         = 24.76
 optimisation between [QCUT,QGAM] = [ 10.15, 20.30] = [ 28.85,115.39] Ry
 Optimized for a Real-space Cutoff    1.30 Angstroem

   l    n(q)    QCUT    max X(q) W(low)/X(q) W(high)/X(q)  e(spline)
   0      8    10.150     4.192    0.55E-04    0.58E-04    0.78E-07
   0      8    10.150     8.473    0.46E-03    0.68E-03    0.23E-06
   1      7    10.150     2.474    0.11E-03    0.93E-04    0.33E-07
   1      7    10.150     3.912    0.46E-03    0.50E-03    0.15E-06
 PAW_PBE Ga_d 06Sep2000                 :
 PAW_PBE O 08Apr2002                    :

 POSCAR: Ga  O
  positions in direct lattice
  velocities in cartesian coordinates
 exchange correlation table for  LEXCH =        8
   RHO(1)=    0.500       N(1)  =     2000
   RHO(2)=  100.500       N(2)  =     4000

 ion  position               nearest neighbor table
   1  0.501  0.376  0.498- 134 1.91 124 1.92  82 2.00 122 2.01  71 2.04  83 2.04  23 2.81  20 2.81
                            41 2.81  37 2.82
   2  0.091  1.000  0.396- 107 1.82  98 1.82 139 1.83 105 1.85
   3  0.412  0.614  0.602-  71 1.79  84 1.84 156 1.88 120 1.89
   4  0.590  0.624  0.898-  85 1.82  70 1.83 157 1.84 135 1.86
   5  0.160  0.625  0.655-  79 1.93 148 1.93  77 1.94 120 2.00  74 2.08 153 2.09
   6  0.841  0.626  0.845-  78 1.93  76 1.93 149 1.94 135 1.99  75 2.05 152 2.09
   7  0.909  0.501  0.605-  89 1.81  77 1.83 117 1.83  75 1.85
   8  0.088  0.501  0.894-  67 1.82 116 1.82  76 1.83  74 1.86
   9  0.841  0.375  0.848-  78 1.93 118 1.93 116 1.93  64 1.93  75 2.10 115 2.11
  10  0.911  0.249  0.605- 130 1.81  96 1.84 117 1.84 115 1.85
  11  0.087  0.249  0.894- 131 1.82 116 1.83  95 1.83  92 1.86
  12  0.840  0.625  0.343-  89 1.93  88 1.94 137 1.95  80 2.00  87 2.01 140 2.09
  13  0.657  0.001  0.654- 101 1.91 113 1.92 154 1.93  94 2.04 132 2.08 159 2.09
  14  0.159  0.626  0.155-  69 1.92  67 1.94 136 1.94  81 1.99  86 2.06 141 2.09
  15  0.086  0.250  0.394- 107 1.83 128 1.83 119 1.83 126 1.86
  16  0.913  0.249  0.106- 118 1.82 127 1.83 108 1.84 129 1.84
  17  0.833  0.375  0.348-  91 1.86  89 1.92 130 1.93 128 1.99  87 2.17 127 2.19
  18  0.159  0.375  0.152- 129 1.92 121 1.93  67 1.94 131 1.94  86 2.10 126 2.10
  19  0.414  0.375  0.106-  68 1.82 123 1.82 121 1.83  90 1.86
  20  0.337  0.249  0.342- 122 1.89 124 1.90 103 1.97 126 2.00 100 2.08 121 2.15   1 2.81
  21  0.661  0.255  0.160-  91 1.92 123 1.95 125 1.96 104 2.00 127 2.03  99 2.10  36 2.92
  22  0.412  0.625  0.105-  68 1.82 144 1.83  72 1.83  81 1.86
  23  0.337  0.501  0.341-  82 1.89 124 1.89  84 1.97  86 2.00  81 2.06 121 2.13   1 2.81
  24  0.589  0.614  0.398-  82 1.80  73 1.84  80 1.87 145 1.89
  25  0.342  1.000  0.842- 114 1.92 155 1.94 112 1.94  93 2.01 158 2.05 133 2.07
  26  0.413  0.136  0.602-  83 1.80 103 1.84 113 1.88 133 1.89
  27  0.591  0.125  0.898- 104 1.82  66 1.83 114 1.84 132 1.86
  28  0.909  1.000  0.104- 108 1.82  97 1.82 138 1.83 106 1.85
  29  0.840  0.125  0.343- 130 1.93 109 1.94 107 1.94  99 2.01 127 2.01 106 2.08
  30  0.159  0.124  0.156- 108 1.92 131 1.93 110 1.94 100 1.99 126 2.06 105 2.07
  31  0.588  0.136  0.398- 122 1.80 101 1.84  99 1.87 102 1.89
  32  0.411  0.125  0.105- 123 1.82 111 1.82 112 1.83 100 1.85
  33  0.343  0.001  0.346- 103 1.92 102 1.92 143 1.93 105 2.04 100 2.08 146 2.09
  34  0.659  0.001  0.158- 111 1.93 104 1.93 142 1.95 106 2.01  99 2.05 147 2.07
  35  0.087  0.500  0.394-  88 1.82 128 1.83  79 1.83  86 1.86
  36  0.661  0.495  0.160-  91 1.92  68 1.95 125 1.95  85 1.98  87 2.03  80 2.09  21 2.92
  37  0.661  0.250  0.659-  83 1.90 134 1.90 101 1.97 115 2.01 132 2.08  64 2.12   1 2.82
  38  0.912  0.501  0.106-  78 1.82  87 1.83 129 1.83  69 1.83
  39  0.586  0.375  0.893- 125 1.82  64 1.83  70 1.83  66 1.84
  40  0.155  0.375  0.649-  79 1.90 117 1.90 119 1.90  65 1.99  74 2.12  92 2.14
  41  0.661  0.501  0.661-  71 1.90 134 1.90  73 1.96  75 2.01 135 2.06  64 2.11   1 2.81
  42  0.341  0.504  0.847-  72 1.90  70 1.91  90 1.95  74 2.02 120 2.05  65 2.06
  43  0.091  0.999  0.896- 110 1.82  95 1.82 151 1.83  93 1.86
  44  0.910  0.000  0.604- 109 1.82  96 1.83 150 1.83  94 1.86
  45  0.841  0.124  0.844- 118 1.93  95 1.93  97 1.94 132 2.00 115 2.05  94 2.07
  46  0.161  0.125  0.655-  98 1.93 119 1.93  96 1.94 133 2.00  92 2.08  93 2.08
  47  0.341  0.246  0.848- 112 1.91  66 1.91  90 1.95  92 2.02 133 2.06  65 2.07
  48  0.090  0.751  0.396-  88 1.83 148 1.83 139 1.83 141 1.86
  49  0.911  0.751  0.104- 149 1.83  69 1.83 138 1.83 140 1.86
  50  0.840  0.875  0.344- 109 1.93 137 1.93 139 1.94 147 2.01 106 2.06 140 2.06
  51  0.161  0.875  0.158- 110 1.94 136 1.94 138 1.94 146 2.01 105 2.05 141 2.05
  52  0.587  0.875  0.395- 154 1.83 102 1.84 145 1.85 147 1.86
  53  0.410  0.875  0.103- 111 1.83 155 1.83 144 1.83 146 1.85
  54  0.343  0.749  0.347-  84 1.92 145 1.93 143 1.94 141 2.03  81 2.09 146 2.10
  55  0.659  0.749  0.157- 144 1.93  85 1.94 142 1.96 140 2.01  80 2.07 147 2.08
  56  0.089  0.751  0.896- 136 1.82  76 1.83 151 1.83 153 1.86
  57  0.911  0.750  0.604- 137 1.82  77 1.83 150 1.84 152 1.86
  58  0.839  0.875  0.842-  97 1.94 149 1.94 151 1.94 159 2.01  94 2.05 152 2.06
  59  0.159  0.875  0.656-  98 1.93 148 1.93 150 1.93 158 2.02  93 2.06 153 2.07
  60  0.590  0.875  0.897- 142 1.82 114 1.83 157 1.83 159 1.86
  61  0.413  0.875  0.604- 143 1.83 113 1.84 156 1.84 158 1.87
[...]
 145  0.504  0.746  0.373-  52 1.85  24 1.89  54 1.93
 146  0.329  0.875  0.220-  53 1.85  51 2.01  33 2.09  54 2.10
 147  0.672  0.875  0.281-  52 1.86  50 2.01  34 2.07  55 2.08
 148  0.163  0.751  0.553-  48 1.83  59 1.93   5 1.93
 149  0.836  0.751  0.947-  49 1.83  58 1.94   6 1.94
 150  0.997  0.876  0.628-  44 1.83  57 1.84  59 1.93
 151  0.003  0.876  0.872-  43 1.83  56 1.83  58 1.94
 152  0.827  0.751  0.719-  57 1.86  63 2.03  58 2.06   6 2.09
 153  0.173  0.751  0.781-  56 1.86  62 2.01  59 2.07   5 2.09
 154  0.662  0.875  0.553-  52 1.83  13 1.93  63 1.94
 155  0.336  0.876  0.946-  53 1.83  25 1.94  62 1.94
 156  0.495  0.746  0.627-  61 1.84   3 1.88  63 1.93
 157  0.503  0.750  0.873-  60 1.83   4 1.84  62 1.93
 158  0.328  0.875  0.719-  61 1.87  59 2.02  25 2.05  62 2.06
 159  0.671  0.875  0.780-  60 1.86  58 2.01  13 2.09  63 2.10

  LATTYP: Found a simple monoclinic cell.
 ALAT       =    14.6889751464
 B/A-ratio  =     0.8259161174
 C/A-ratio  =     1.5972413798
 COS(beta)  =    -0.9171837574

  Lattice vectors:

 A1 = ( -11.8609006218,   0.0000000000,  -8.6651617002)
 A2 = (   0.0000000000, -12.1318613217,   0.0000000000)
 A3 = (  11.8609006218,   0.0000000000,  20.2429474736)

Analysis of symmetry for initial positions (statically):
 Subroutine PRICEL returns:
 Original cell was already a primitive cell.

 Routine SETGRP: Setting up the symmetry group for a
 simple monoclinic supercell.

 Subroutine GETGRP returns: Found  1 space group operations
 (whereof  1 operations were pure point group operations)
 out of a pool of  4 trial point group operations.

The static configuration has the point symmetry C_1 .

Analysis of symmetry for dynamics (positions and initial velocities):
 Subroutine PRICEL returns:
 Original cell was already a primitive cell.

[...]

The dynamic configuration has the point symmetry C_1 .

Analysis of structural, dynamic, and magnetic symmetry:
 Subroutine PRICEL returns:
 Original cell was already a primitive cell.

 Routine SETGRP: Setting up the symmetry group for a
 simple monoclinic supercell.

 Subroutine GETGRP returns: Found  1 space group operations
 (whereof  1 operations were pure point group operations)
 out of a pool of  4 trial point group operations.

The magnetic configuration has the point symmetry C_1 .

 Subroutine INISYM returns: Found  1 space group operations
 (whereof  1 operations are pure point group operations),
 and found     1 'primitive' translations

 KPOINTS: KPOINTS created by Atomic Simulation Env
  k-points in reciprocal lattice
Space group operators:
 irot       det(A)        alpha          n_x          n_y          n_z        tau_x        tau_y        tau_z
    1     1.000000     0.000000     1.000000     0.000000     0.000000     0.000000     0.000000     0.000000

 Subroutine IBZKPT_HF returns following result:

 Found      2 k-points in 1st BZ
 the following      2 k-points will be used (e.g. in the exchange kernel)
 Following reciprocal coordinates:   # in IRBZ
  0.250000  0.250000  0.250000    0.50000000   1 t-inv F
 -0.250000 -0.250000 -0.250000    0.50000000   1 t-inv T

 I would recommend the setting:
   dimension x,y,z NGX =    60 NGY =   59 NGZ =   57
 SYSTEM =  unknown system
 POSCAR =  Ga  O

 Startparameter for this run:
   NWRITE =      2    write-flag & timer
   PREC   = normal    normal or accurate (medium, high low for compatibility)
   ISTART =      1    job   : 0-new  1-cont  2-samecut
   ICHARG =      0    charge: 1-file 2-atom 10-const
   ISPIN  =      2    spin polarized calculation?
   LNONCOLLINEAR =      F non collinear calculations
   LSORBIT =      F    spin-orbit coupling
   INIWAV =      1    electr: 0-lowe 1-rand  2-diag
   LASPH  =      F    aspherical Exc in radial PAW
   METAGGA=      F    non-selfconsistent MetaGGA calc.

 Electronic Relaxation 1
[...]
   -.106E+03 0.217E+02 0.231E+02   0.104E+03 -.216E+02 -.199E+02   0.132E+01 -.736E-01 -.286E+01
   -.154E+02 0.652E+01 -.572E+02   0.140E+02 -.618E+01 0.625E+02   0.131E+01 -.320E+00 -.489E+01
   0.105E+03 -.408E+02 0.423E+02   -.104E+03 0.404E+02 -.453E+02   -.790E+00 0.403E+00 0.271E+01
   -.103E+03 -.271E+02 0.242E+02   0.102E+03 0.268E+02 -.211E+02   0.102E+01 0.257E+00 -.285E+01
   0.752E+01 0.247E+02 -.105E+03   -.689E+01 -.267E+02 0.108E+03   -.591E+00 0.182E+01 -.333E+01
   0.621E+02 -.111E+02 0.808E+02   -.646E+02 0.121E+02 -.868E+02   0.243E+01 -.901E+00 0.559E+01
   0.883E+01 0.105E+02 0.659E+02   -.102E+02 -.109E+02 -.703E+02   0.125E+01 0.422E+00 0.406E+01
   -.119E+03 -.474E+02 -.468E+02   0.117E+03 0.471E+02 0.490E+02   0.198E+01 0.238E+00 -.199E+01
   0.928E+02 -.383E+02 -.570E+01   -.928E+02 0.374E+02 0.452E+01   -.221E-01 0.836E+00 0.106E+01
   0.566E+02 0.666E+01 -.152E+03   -.648E+02 -.631E+01 0.156E+03   0.752E+01 -.337E+00 -.367E+01
   0.141E+02 0.585E+01 0.571E+02   -.127E+02 -.554E+01 -.618E+02   -.128E+01 -.291E+00 0.435E+01
   -.146E+02 0.468E+01 -.246E+02   0.154E+02 -.445E+01 0.247E+02   -.676E+00 -.213E+00 -.171E+00
   -.253E+02 -.146E+02 -.786E+02   0.310E+02 0.179E+02 0.857E+02   -.523E+01 -.306E+01 -.656E+01
   0.972E+02 -.125E+02 0.514E+01   -.970E+02 0.190E+02 -.426E+01   -.634E-01 -.599E+01 -.769E+00
   0.354E+02 0.418E+02 -.205E+01   -.330E+02 -.425E+02 0.593E-01   -.220E+01 0.582E+00 0.178E+01
   -.292E+02 0.140E+02 -.731E+02   0.348E+02 -.173E+02 0.803E+02   -.514E+01 0.307E+01 -.660E+01
   -.959E+02 0.111E+03 0.325E+02   0.921E+02 -.114E+03 -.294E+02   0.346E+01 0.270E+01 -.277E+01
   -.552E+02 -.352E+02 -.357E+02   0.568E+02 0.347E+02 0.401E+02   -.152E+01 0.422E+00 -.411E+01
   0.101E+03 -.132E+03 -.448E+02   -.974E+02 0.135E+03 0.409E+02   -.315E+01 -.277E+01 0.356E+01
   -.425E+02 -.501E+02 0.184E+01   0.409E+02 0.501E+02 0.111E+01   0.145E+01 -.531E-01 -.266E+01
   0.930E+02 -.752E+01 0.107E+02   -.903E+02 0.749E+01 -.130E+02   -.244E+01 0.210E-01 0.213E+01
   0.992E+01 -.369E+02 -.109E+03   -.923E+01 0.385E+02 0.113E+03   -.653E+00 -.150E+01 -.323E+01
   0.766E+01 -.238E+02 0.645E+02   -.907E+01 0.238E+02 -.689E+02   0.131E+01 -.304E-01 0.408E+01
   -.924E+02 -.121E+03 0.302E+02   0.893E+02 0.124E+03 -.271E+02   0.280E+01 -.245E+01 -.276E+01
   0.373E+02 -.539E+02 -.232E+01   -.346E+02 0.542E+02 0.408E+00   -.236E+01 -.258E+00 0.171E+01
   -.644E+02 -.147E+02 -.864E+02   0.671E+02 0.156E+02 0.922E+02   -.255E+01 -.831E+00 -.537E+01
   0.575E+02 -.226E+02 0.508E+02   -.589E+02 0.237E+02 -.550E+02   0.131E+01 -.101E+01 0.395E+01
   -.120E+03 0.443E+02 -.491E+02   0.118E+03 -.442E+02 0.512E+02   0.232E+01 -.162E+00 -.187E+01
   0.980E+02 0.978E+01 0.406E+01   -.979E+02 -.163E+02 -.328E+01   -.350E-01 0.601E+01 -.670E+00
   0.417E+02 -.396E+01 0.662E+02   -.471E+02 0.761E+01 -.731E+02   0.494E+01 -.332E+01 0.640E+01
   0.947E+02 0.304E+02 -.516E+01   -.945E+02 -.298E+02 0.405E+01   -.231E+00 -.526E+00 0.995E+00
   0.530E+02 0.566E+01 0.426E+02   -.504E+02 -.536E+01 -.395E+02   -.234E+01 -.276E+00 -.276E+01
   -.144E+03 0.532E+01 0.116E+03   0.141E+03 -.509E+01 -.123E+03   0.272E+01 -.215E+00 0.630E+01
   0.455E+02 0.427E+01 0.600E+02   -.509E+02 -.788E+01 -.670E+02   0.491E+01 0.328E+01 0.647E+01
   -.582E+02 0.981E+02 0.350E+02   0.608E+02 -.966E+02 -.302E+02   -.240E+01 -.141E+01 -.441E+01
   -.875E+02 -.110E+02 -.196E+01   0.850E+02 0.111E+02 0.463E+01   0.231E+01 -.889E-01 -.240E+01
   0.910E+02 -.142E+02 0.272E+02   -.888E+02 0.142E+02 -.299E+02   -.202E+01 0.258E-01 0.240E+01
   -.117E+02 -.127E+02 -.640E+02   0.125E+02 0.133E+02 0.685E+02   -.750E+00 -.545E+00 -.418E+01
   -.246E+02 -.661E+02 0.960E+02   0.235E+02 0.660E+02 -.101E+03   0.988E+00 0.782E-01 0.454E+01
   -.566E+02 -.104E+03 0.344E+02   0.591E+02 0.102E+03 -.296E+02   -.229E+01 0.156E+01 -.440E+01
   -.903E+02 0.217E+02 -.306E+02   0.880E+02 -.218E+02 0.328E+02   0.213E+01 0.145E+00 -.198E+01
   0.899E+02 0.130E+02 0.742E+01   -.878E+02 -.128E+02 -.980E+01   -.189E+01 -.126E+00 0.216E+01
   -.119E+02 0.802E+01 -.917E+02   0.130E+02 -.786E+01 0.964E+02   -.997E+00 -.168E+00 -.433E+01
   0.210E+02 0.748E+01 0.684E+02   -.218E+02 -.738E+01 -.723E+02   0.745E+00 -.103E+00 0.355E+01
   -.639E+02 0.730E+01 -.148E+02   0.627E+02 -.692E+01 0.171E+02   0.111E+01 -.361E+00 -.213E+01
   0.587E+02 0.880E+01 0.841E+01   -.565E+02 -.855E+01 -.103E+02   -.201E+01 -.231E+00 0.167E+01
   -.640E+02 0.145E+02 -.824E+02   0.664E+02 -.154E+02 0.884E+02   -.226E+01 0.860E+00 -.556E+01
   0.552E+02 0.274E+02 0.535E+02   -.564E+02 -.282E+02 -.577E+02   0.115E+01 0.794E+00 0.393E+01
   -.841E+02 0.157E+02 0.180E+00   0.821E+02 -.156E+02 0.252E+01   0.174E+01 -.438E-01 -.243E+01
   0.864E+02 0.174E+02 0.251E+02   -.847E+02 -.172E+02 -.277E+02   -.152E+01 -.113E+00 0.241E+01
   -.184E+02 0.757E+01 -.652E+02   0.191E+02 -.745E+01 0.692E+02   -.646E+00 -.119E+00 -.374E+01
   0.114E+02 0.718E+01 0.831E+02   -.130E+02 -.698E+01 -.882E+02   0.148E+01 -.194E+00 0.468E+01
   -.615E+02 0.953E+01 -.302E+01   0.598E+02 -.926E+01 0.559E+01   0.149E+01 -.259E+00 -.231E+01
[...]
   -.611E+02 0.517E+01 0.381E+02   0.605E+02 -.528E+01 -.316E+02   0.431E+00 0.123E-01 -.547E+01
   0.552E+02 0.412E+01 -.655E+02   -.544E+02 -.414E+01 0.604E+02   -.556E+00 -.587E-01 0.435E+01
   -.121E+03 0.146E+02 0.889E+02   0.133E+03 -.147E+02 -.886E+02   -.941E+01 0.183E-01 -.174E+00
   0.118E+03 0.398E+01 -.897E+02   -.129E+03 -.388E+01 0.890E+02   0.958E+01 -.126E+00 0.508E+00
   -.183E+02 0.198E+01 -.765E+01   0.265E+02 -.189E+01 0.939E+01   -.683E+01 -.206E+00 -.139E+01
   0.248E+02 0.178E+01 0.125E+02   -.338E+02 -.164E+01 -.139E+02   0.762E+01 -.248E+00 0.107E+01
   -.302E+02 0.668E+01 0.606E+02   0.286E+02 -.709E+01 -.556E+02   0.125E+01 0.314E+00 -.431E+01
   0.366E+02 0.162E+02 -.429E+02   -.360E+02 -.166E+02 0.375E+02   -.432E+00 0.308E+00 0.460E+01
   -.994E+02 0.144E+01 0.980E+02   0.111E+03 -.124E+01 -.979E+02   -.940E+01 -.281E+00 -.776E-01
   0.101E+03 0.302E+01 -.867E+02   -.112E+03 -.285E+01 0.861E+02   0.966E+01 -.260E+00 0.470E+00
   0.776E+01 0.265E+02 -.170E+02   -.241E+01 -.289E+02 0.190E+02   -.456E+01 0.212E+01 -.163E+01
   0.190E+02 0.166E+02 0.220E+02   -.266E+02 -.168E+02 -.237E+02   0.637E+01 0.249E+00 0.140E+01
   -.543E+02 0.414E+01 0.729E+02   0.534E+02 -.420E+01 -.689E+02   0.642E+00 -.325E-01 -.348E+01
   0.617E+02 0.530E+01 -.394E+02   -.612E+02 -.542E+01 0.331E+02   -.270E+00 0.142E-01 0.535E+01
   -.142E+02 0.189E+01 0.233E+02   0.000E+00 -.422E-11 -.469E-12   0.121E+02 -.171E+01 -.201E+02

 POSITION                                       TOTAL-FORCE (eV/Angst)
      5.94052      4.56258      4.30362         0.002407      0.000136      0.003777
      1.07977     12.13015      4.32028         0.001121      0.001965      0.004090
      4.88566      7.45418      5.76502        -0.000089     -0.000140     -0.007584
      7.00079      7.57423      8.68158         0.003159      0.004157     -0.002872
      1.90203      7.58232      7.11391        -0.003991      0.000688      0.000554
      9.97359      7.58945      7.33194        -0.000437     -0.001709     -0.002273
     10.78221      6.07959      4.35361        -0.005822      0.001417      0.001057
      1.04799      6.07209     10.09799        -0.007583      0.001773     -0.004261
      9.97131      4.54887      7.37271        -0.002713      0.000269     -0.001122
     10.79972      3.01763      4.35020        -0.006683     -0.002375     -0.002611
      1.03523      3.02332     10.10112        -0.006138      0.002510     -0.006332
      9.96276      7.57809      1.53000         0.000475     -0.001889      0.002398
      7.79129      0.01198      5.65846        -0.001824     -0.001597     -0.003936
      1.88845      7.59318      1.32852        -0.003222      0.004192      0.001881
      1.01736      3.03352      4.30768        -0.001732      0.001100      0.003829
     10.82719      3.01499     -1.43574        -0.000041     -0.006050     -0.006672
      9.88289      4.54861      1.60217        -0.007585     -0.001191      0.000897
      1.88270      4.54906      1.29800        -0.001535      0.001171     -0.000554
      4.90574      4.54801      0.02827         0.001313      0.005807     -0.007940
      3.99845      3.02501      2.97955         0.005911      0.000481      0.004047
      7.84451      3.09028     -0.07195         0.002895     -0.001310      0.000086
      4.88183      7.58278      0.01849         0.003812      0.003391     -0.002214
      3.99815      6.07836      2.96163         0.005044     -0.000660      0.001962
      6.98638      7.44759      2.89691         0.001180      0.001389      0.003178
      4.05467     12.12654      8.75323        -0.000523     -0.004896     -0.000254
      4.90258      1.64456      5.76813         0.001836      0.000942     -0.007319
      7.00575      1.51411      8.68152         0.003035     -0.004917     -0.003726
     10.78477     12.12694     -1.44622         0.003536     -0.005861      0.000281
      9.95991      1.51267      1.52765         0.000415     -0.001050      0.001665
      1.89163      1.50208      1.33609        -0.003604     -0.002152      0.002287
      6.97086      1.64767      2.89455        -0.000722     -0.002075      0.003623
      4.87758      1.51128      0.01882         0.004532     -0.000043     -0.002754
      4.07121      0.01219      3.00955        -0.000738     -0.007318      0.007052
      7.81341      0.01699     -0.08806         0.000895     -0.004500      0.003130
      1.03435      6.06542      4.30523        -0.000520      0.001439      0.007002
      7.84319      6.00962     -0.06842         0.003242      0.001271     -0.000224
      7.84396      3.03062      5.70477        -0.001548      0.002715      0.002639
     10.81547      6.08131     -1.43368         0.000387      0.006212     -0.005257
      6.94987      4.54463      8.63831         0.003708     -0.003439     -0.004626
      1.83394      4.55174      7.06031        -0.003285      0.002602      0.001740
      7.84388      6.07329      5.72207        -0.001257     -0.003222      0.001495
      4.04980      6.11513      8.81264         0.002030      0.001017     -0.009713
      1.07880     12.12558     10.11232        -0.001730     -0.001692      0.001118
     10.78892      0.00137      4.33930         0.005931     -0.001426     -0.002024
      9.97043      1.50457      7.32491         0.000253      0.001261     -0.004690
      1.90475      1.51408      7.11487        -0.003194      0.002645     -0.002534
      4.04726      2.98109      8.82061        -0.000268      0.001487     -0.008520
      1.06434      9.10544      4.32145         0.001531     -0.001428      0.004039
     10.80155      9.11165     -1.44776         0.003853      0.002737      0.000538
      9.96694     10.61947      1.53445         0.002165     -0.002759      0.000950
      1.90479     10.62109      1.35691        -0.000900     -0.000255      0.001751
      6.96144     10.60965      2.86599        -0.003290     -0.002040      0.000839
      4.86282     10.61732      0.00264        -0.000325     -0.000241      0.008401
      4.06459      9.08611      3.01695        -0.000076      0.005203      0.008258
      7.81903      9.08420     -0.09794         0.000799      0.003281      0.003245
      1.06140      9.11071     10.11322        -0.004380     -0.000947      0.001268
     10.80450      9.10073      4.33887         0.005125      0.000506     -0.003346
      9.95642     10.62072      7.30826         0.002912     -0.002018     -0.003699
      1.89103     10.62077      7.12867         0.008509     -0.000811     -0.003026
      7.00076     10.61490      8.66884         0.000911      0.000601     -0.000025
[...]
      5.98245      9.04585      2.85002        -0.000344     -0.002456      0.000305
      3.90057     10.62058      1.58806         0.002538      0.000854     -0.003553
      7.96688     10.61910      1.29782         0.003402     -0.000222     -0.002812
      1.93258      9.11171      5.92980        -0.004216     -0.000271     -0.004684
      9.92022      9.11550      8.52988         0.005936      0.001668     -0.004541
     11.82608     10.62537      4.37239         0.002398      0.001450     -0.001574
      0.03438     10.62681     10.08728         0.002910      0.003044     -0.003830
      9.81477      9.11547      5.91619         0.000891      0.001456     -0.002228
      2.05220      9.10790      8.53631         0.000518     -0.001845      0.001612
      7.84694     10.62028      4.47115        -0.001750     -0.000827      0.002849
      3.98857     10.62413      9.97663        -0.003898      0.000450      0.001643
      5.87620      9.04847      5.82136         0.003749      0.000210      0.003717
      5.97148      9.09663      8.64104         0.000445     -0.000848      0.005256
      3.89590     10.61868      7.36760        -0.000350      0.000681      0.007296
      7.96120     10.62056      7.07836         0.002702     -0.001056     -0.000035
    total drift:                                0.072743     -0.297722      0.257500

  FREE ENERGIE OF THE ION-ELECTRON SYSTEM (eV)
  free  energy   TOTEN  =     -1492.11166161 eV

  energy  without entropy=    -1492.11166161  energy(sigma->0) =    -1492.11166161

 d Force = 0.1690083E-05[ 0.232E-05, 0.106E-05]  d Energy = 0.3851877E-04-0.368E-04
 d Force =-0.9671599E-02[-0.968E-02,-0.966E-02]  d Ewald  =-0.9670197E-02-0.140E-05

 reached required accuracy - stopping structural energy minimisation
 writing wavefunctions

 total charge

[...]

 magnetization (x)

# of ion     s       p       d       tot
  1       -0.000  -0.000  -0.000  -0.000
  2        0.000   0.000   0.000   0.000
  3       -0.000  -0.000  -0.000  -0.000
  4       -0.000  -0.000  -0.000  -0.000
  5       -0.000  -0.000   0.000  -0.000
  6       -0.000   0.000   0.000   0.000
  7       -0.000  -0.000  -0.000  -0.000
  8       -0.000   0.000   0.001   0.001
  9       -0.000  -0.000  -0.000  -0.000
 10       -0.000  -0.000  -0.000  -0.000
 11       -0.000   0.000   0.001   0.001
 12       -0.000  -0.000   0.000  -0.000
 13       -0.000  -0.000   0.000  -0.000
 14       -0.000  -0.000   0.000  -0.000
 15       -0.000  -0.000  -0.000  -0.000
 16       -0.000  -0.000   0.000  -0.000
 17       -0.000  -0.000   0.000  -0.000
 18       -0.000  -0.000   0.000  -0.000
 19        0.000   0.003   0.002   0.005
 20       -0.000  -0.000   0.000  -0.000
 21       -0.000   0.000   0.000   0.000
 22       -0.000  -0.000  -0.000  -0.000
 23       -0.000  -0.000   0.000  -0.000
 24       -0.000  -0.000   0.000  -0.000
 25       -0.000  -0.000  -0.000  -0.000
 26       -0.000  -0.000  -0.000  -0.000
 27       -0.000  -0.000  -0.000  -0.000
 28       -0.000  -0.000   0.000  -0.000
 29       -0.000  -0.000   0.000  -0.000
 30       -0.000  -0.000   0.000  -0.000
 31       -0.000  -0.000   0.000  -0.000
 32       -0.000  -0.000  -0.000  -0.000
 33       -0.000  -0.000  -0.000  -0.000
 34       -0.000  -0.000  -0.000  -0.000
 35       -0.000  -0.000  -0.000  -0.000
 36       -0.000   0.000   0.000   0.000
 37       -0.000   0.000   0.000   0.000
 38       -0.000  -0.000   0.000  -0.000
 39        0.000  -0.000   0.000   0.000
 40       -0.005  -0.006   0.001  -0.011
 41       -0.000   0.000   0.000   0.000
 42       -0.005  -0.006   0.002  -0.009
 43       -0.000  -0.000   0.000  -0.000
 44       -0.000  -0.000   0.000  -0.000
 45       -0.000   0.000   0.000   0.000
 46       -0.000  -0.000   0.000  -0.000
 47       -0.005  -0.006   0.002  -0.009
 48        0.000   0.000   0.000   0.000
 49       -0.000  -0.000   0.000  -0.000
 50       -0.000  -0.000   0.000  -0.000
 51       -0.000  -0.000  -0.000  -0.000
 52       -0.000  -0.000  -0.000  -0.000
 53        0.000   0.000   0.000   0.000
 54       -0.000  -0.000  -0.000  -0.000
 55       -0.000  -0.000  -0.000  -0.000
 56       -0.000  -0.000   0.000  -0.000
 57       -0.000  -0.000   0.000  -0.000
 58       -0.000  -0.000   0.000  -0.000
 59       -0.000  -0.000   0.000  -0.000
 60       -0.000  -0.000  -0.000  -0.000
[...]
145       -0.000  -0.000   0.000  -0.000
146       -0.000   0.000   0.000   0.000
147       -0.000   0.000   0.000   0.000
148       -0.000  -0.000   0.000  -0.000
149        0.000   0.000   0.000   0.000
150       -0.000  -0.000   0.000  -0.000
151       -0.000   0.000   0.000   0.000
152       -0.000   0.000   0.000   0.000
153       -0.000   0.000   0.000   0.000
154       -0.000   0.000   0.000   0.000
155       -0.000  -0.000   0.000  -0.000
156       -0.000  -0.000   0.000  -0.000
157       -0.000  -0.000   0.000  -0.000
158       -0.000  -0.000   0.000  -0.000
159       -0.000   0.000   0.000  -0.000
tot        0.001   0.828   0.009   0.838