 vasp.5.4.1 05Feb16 (build May 04 2017 01:30:51) complex

 executed on      LLNL_Quartz_ifc date 2018.08.14  17:27:53

 INCAR:
 POTCAR:   PAW_PBE Ga_d 06Sep2000
 POTCAR:   PAW_PBE O 08Apr2002

 POTCAR:   PAW_PBE Ga_d 06Sep2000
   VRHFIN =Ga: s2p1

   TITEL  = PAW_PBE Ga_d 06Sep2000
   POMASS =   69.723; ZVAL   =   13.000    mass and valenz
   ENMAX  =  282.697; ENMIN  =  212.022 eV
   QCUT   =   -4.558; QGAM   =    9.117    optimization parameters

   Description
     l     E      TYP  RCUT    TYP  RCUT
     2   .000     23  2.300
     2  -.400     23  2.300
     0   .000     23  2.300
     0   .000     23  2.300
     1   .000     23  2.300
     1   .000     23  2.300
     3  -.100      7  2.300

 POTCAR:   PAW_PBE O 08Apr2002
   VRHFIN =O: s2p4

   TITEL  = PAW_PBE O 08Apr2002
   POMASS =   16.000; ZVAL   =    6.000    mass and valenz
   ENMAX  =  400.000; ENMIN  =  300.000 eV
   QCUT   =   -5.520; QGAM   =   11.041    optimization parameters

   Description
     l     E      TYP  RCUT    TYP  RCUT
     0   .000     23  1.200
     0  -.700     23  1.200
     1   .000     23  1.520
     1   .600     23  1.520
     2   .000      7  1.500

 Optimization of the real space projectors (new method)

 maximal supplied QI-value         = 16.25
 optimisation between [QCUT,QGAM] = [ 10.24, 20.48] = [ 29.35,117.42] Ry
 Optimized for a Real-space Cutoff    1.38 Angstroem

   l    n(q)    QCUT    max X(q) W(low)/X(q) W(high)/X(q)  e(spline)
   2      7    10.239     6.328    0.33E-04    0.68E-04    0.30E-07
   2      7    10.239     9.625    0.20E-03    0.23E-03    0.80E-07
   0      8    10.239     9.711    0.17E-04    0.17E-04    0.13E-07
   0      8    10.239    32.764    0.56E-04    0.14E-03    0.62E-07
   1      8    10.239     7.413    0.78E-04    0.28E-04    0.38E-07
   1      8    10.239    31.472    0.43E-03    0.30E-03    0.73E-07
 Optimization of the real space projectors (new method)

 maximal supplied QI-value         = 24.76
 optimisation between [QCUT,QGAM] = [ 10.15, 20.30] = [ 28.85,115.39] Ry
 Optimized for a Real-space Cutoff    1.30 Angstroem

   l    n(q)    QCUT    max X(q) W(low)/X(q) W(high)/X(q)  e(spline)
   0      8    10.150     4.192    0.55E-04    0.58E-04    0.78E-07
   0      8    10.150     8.473    0.46E-03    0.68E-03    0.23E-06
   1      7    10.150     2.474    0.11E-03    0.93E-04    0.33E-07
   1      7    10.150     3.912    0.46E-03    0.50E-03    0.15E-06
 PAW_PBE Ga_d 06Sep2000                 :
 PAW_PBE O 08Apr2002                    :

 POSCAR: Ga  O
  positions in direct lattice
  velocities in cartesian coordinates
 exchange correlation table for  LEXCH =        8
   RHO(1)=    0.500       N(1)  =     2000
   RHO(2)=  100.500       N(2)  =     4000

 ion  position               nearest neighbor table
   1  0.499  0.376  0.248-  68 1.96 123 1.97  82 1.98 122 1.99 121 2.02  91 2.04
   2  0.091  0.000  0.397-  98 1.82 107 1.83 139 1.83 105 1.86
   3  0.410  0.625  0.605-  84 1.82 156 1.84  71 1.84 120 1.85
   4  0.589  0.625  0.896-  85 1.82  70 1.82 157 1.83 135 1.87
   5  0.160  0.624  0.656-  79 1.93  77 1.94 148 1.94 120 2.00  74 2.02 153 2.10
   6  0.842  0.625  0.845-  76 1.92  78 1.93 149 1.93 135 2.02  75 2.09 152 2.09
   7  0.911  0.500  0.604-  89 1.82  77 1.82 117 1.82  75 1.87
   8  0.092  0.499  0.895-  67 1.82 116 1.83  76 1.84  74 1.85
   9  0.840  0.375  0.847-  78 1.93 118 1.93 116 1.94  64 2.01  75 2.09 115 2.11
  10  0.913  0.249  0.604- 130 1.82  96 1.83 117 1.83 115 1.87
  11  0.090  0.250  0.895- 131 1.82 116 1.84  95 1.85  92 1.85
  12  0.839  0.625  0.344-  88 1.93  89 1.94 137 1.95  80 1.96  87 2.07 140 2.09
  13  0.659  0.000  0.654- 154 1.92 113 1.92 101 1.93  94 2.01 132 2.07 159 2.09
  14  0.161  0.625  0.156-  67 1.93  69 1.94 136 1.95  81 1.97  86 2.07 141 2.09
  15  0.086  0.251  0.394- 119 1.83 128 1.83 107 1.84 126 1.86
  16  0.915  0.251  0.106- 129 1.83 108 1.83 118 1.84 127 1.86
  17  0.831  0.375  0.346-  89 1.92 130 1.93  91 1.96 128 2.00  87 2.13 127 2.13
  18  0.170  0.375  0.153-  67 1.91 131 1.92 121 1.95 129 2.02  86 2.14 126 2.14
  19  0.338  0.251  0.349- 122 1.91 103 1.94 124 1.94 126 2.01 121 2.02 100 2.14
  20  0.662  0.251  0.152- 123 1.90 104 1.94 125 1.95 127 2.00  91 2.02  99 2.15
  21  0.412  0.614  0.105-  68 1.81  72 1.84  81 1.87 144 1.88
  22  0.337  0.498  0.349-  82 1.91  84 1.93 124 1.93  86 2.00 121 2.01  81 2.16
  23  0.587  0.615  0.394-  82 1.81  73 1.85  80 1.87 145 1.88
  24  0.341  0.002  0.845- 112 1.92 114 1.93 155 1.93  93 2.01 133 2.05 158 2.10
  25  0.410  0.125  0.605- 103 1.82 113 1.83  83 1.84 133 1.85
  26  0.589  0.125  0.896- 104 1.82  66 1.82 114 1.82 132 1.87
  27  0.910  0.000  0.104- 108 1.82 138 1.83  97 1.83 106 1.85
  28  0.839  0.124  0.343- 107 1.94 130 1.94 109 1.94  99 1.98 127 2.06 106 2.08
  29  0.161  0.124  0.157- 131 1.93 108 1.94 110 1.94 100 1.98 126 2.06 105 2.07
  30  0.586  0.136  0.393- 122 1.82 101 1.85  99 1.87 102 1.88
  31  0.413  0.136  0.106- 123 1.81 112 1.84 100 1.87 111 1.88
  32  0.343  0.001  0.343- 102 1.92 103 1.94 143 1.95 105 2.03 100 2.04 146 2.07
  33  0.657  0.001  0.157- 111 1.92 104 1.94 142 1.95 106 2.03  99 2.04 147 2.06
  34  0.086  0.499  0.394- 128 1.83  79 1.83  88 1.83  86 1.86
  35  0.663  0.498  0.151-  68 1.90  85 1.93 125 1.94  87 2.00  91 2.01  80 2.18
  36  0.660  0.247  0.657-  83 1.91 101 1.92 134 1.98 115 2.00 132 2.04  64 2.11
  37  0.915  0.499  0.106- 129 1.82  69 1.83  78 1.84  87 1.86
  38  0.412  0.375  0.604- 124 1.80  65 1.83  83 1.83  71 1.84
  39  0.586  0.374  0.896- 125 1.81  70 1.82  66 1.82  64 1.89
  40  0.161  0.375  0.654-  79 1.94 119 1.94 117 1.95  65 1.96  74 2.08  92 2.10
  41  0.660  0.503  0.659-  71 1.91  73 1.93 134 1.98  75 2.00 135 2.02  64 2.08
  42  0.339  0.495  0.850-  90 1.81  72 1.93  70 1.95  74 2.05  65 2.13 120 2.16
  43  0.090  1.000  0.897- 110 1.82  95 1.83 151 1.83  93 1.85
  44  0.910  1.000  0.603- 109 1.82  96 1.82 150 1.82  94 1.86
  45  0.841  0.124  0.845-  95 1.92 118 1.93  97 1.93 132 2.02  94 2.08 115 2.09
  46  0.160  0.125  0.657- 119 1.93  96 1.94  98 1.94 133 2.00  92 2.01  93 2.08
  47  0.339  0.255  0.853-  90 1.81 112 1.93  66 1.96  92 2.05  65 2.16 133 2.20
  48  0.089  0.750  0.396- 148 1.83  88 1.83 139 1.83 141 1.86
  49  0.911  0.750  0.104-  69 1.83 149 1.83 138 1.83 140 1.85
  50  0.840  0.875  0.343- 137 1.93 109 1.93 139 1.94 147 2.02 106 2.05 140 2.06
  51  0.160  0.875  0.157- 136 1.93 110 1.93 138 1.94 146 2.02 105 2.05 141 2.06
  52  0.588  0.875  0.396- 154 1.83 102 1.84 145 1.84 147 1.86
  53  0.412  0.875  0.104- 155 1.83 111 1.84 144 1.84 146 1.86
  54  0.343  0.749  0.343- 145 1.93  84 1.95 143 1.96 141 2.03  81 2.04 146 2.08
  55  0.657  0.749  0.157- 144 1.92  85 1.95 142 1.96 140 2.03  80 2.04 147 2.08
  56  0.089  0.750  0.896- 136 1.82  76 1.83 151 1.84 153 1.86
  57  0.911  0.751  0.603- 137 1.82  77 1.83 150 1.83 152 1.87
  58  0.840  0.875  0.843- 151 1.93  97 1.94 149 1.94 159 2.00  94 2.07 152 2.07
  59  0.160  0.875  0.657-  98 1.94 150 1.94 148 1.94 158 2.00 153 2.07  93 2.07
  60  0.590  0.875  0.897- 142 1.82 114 1.83 157 1.83 159 1.86
[...]
 145  0.505  0.747  0.374-  52 1.84  23 1.88  54 1.93
 146  0.329  0.875  0.219-  53 1.86  51 2.02  32 2.07  54 2.08
 147  0.671  0.876  0.281-  52 1.86  50 2.02  33 2.06  55 2.08
 148  0.163  0.750  0.553-  48 1.83  59 1.94   5 1.94
 149  0.837  0.750  0.947-  49 1.83   6 1.93  58 1.94
 150  0.997  0.876  0.629-  44 1.82  57 1.83  59 1.94
 151  0.002  0.876  0.872-  43 1.83  56 1.84  58 1.93
 152  0.828  0.750  0.719-  57 1.87  63 2.01  58 2.07   6 2.09
 153  0.172  0.751  0.781-  56 1.86  62 2.01  59 2.07   5 2.10
 154  0.663  0.876  0.553-  52 1.83  13 1.92  63 1.93
 155  0.337  0.876  0.947-  53 1.83  24 1.93  62 1.94
 156  0.497  0.750  0.628-   3 1.84  61 1.84  63 1.93
 157  0.503  0.750  0.871-   4 1.83  60 1.83  62 1.93
 158  0.328  0.875  0.719-  61 1.86  59 2.00  62 2.10  24 2.10
 159  0.672  0.875  0.781-  60 1.86  58 2.00  13 2.09  63 2.09

  LATTYP: Found a simple monoclinic cell.
 ALAT       =    14.6889751464
 B/A-ratio  =     0.8259161174
 C/A-ratio  =     1.5972413798
 COS(beta)  =    -0.9171837574

  Lattice vectors:

 A1 = ( -11.8609006218,   0.0000000000,  -8.6651617002)
 A2 = (   0.0000000000, -12.1318613217,   0.0000000000)
 A3 = (  11.8609006218,   0.0000000000,  20.2429474736)

Analysis of symmetry for initial positions (statically):
 Subroutine PRICEL returns:
 Original cell was already a primitive cell.

 Routine SETGRP: Setting up the symmetry group for a
 simple monoclinic supercell.

 Subroutine GETGRP returns: Found  1 space group operations
 (whereof  1 operations were pure point group operations)
 out of a pool of  4 trial point group operations.

The static configuration has the point symmetry C_1 .

Analysis of symmetry for dynamics (positions and initial velocities):
 Subroutine PRICEL returns:
 Original cell was already a primitive cell.

[...]

The dynamic configuration has the point symmetry C_1 .

Analysis of structural, dynamic, and magnetic symmetry:
 Subroutine PRICEL returns:
 Original cell was already a primitive cell.

 Routine SETGRP: Setting up the symmetry group for a
 simple monoclinic supercell.

 Subroutine GETGRP returns: Found  1 space group operations
 (whereof  1 operations were pure point group operations)
 out of a pool of  4 trial point group operations.

The magnetic configuration has the point symmetry C_1 .

 Subroutine INISYM returns: Found  1 space group operations
 (whereof  1 operations are pure point group operations),
 and found     1 'primitive' translations

 KPOINTS: KPOINTS created by Atomic Simulation Env
  k-points in reciprocal lattice
Space group operators:
 irot       det(A)        alpha          n_x          n_y          n_z        tau_x        tau_y        tau_z
    1     1.000000     0.000000     1.000000     0.000000     0.000000     0.000000     0.000000     0.000000

 Subroutine IBZKPT_HF returns following result:

 Found      2 k-points in 1st BZ
 the following      2 k-points will be used (e.g. in the exchange kernel)
 Following reciprocal coordinates:   # in IRBZ
  0.250000  0.250000  0.250000    0.50000000   1 t-inv F
 -0.250000 -0.250000 -0.250000    0.50000000   1 t-inv T

 I would recommend the setting:
   dimension x,y,z NGX =    60 NGY =   59 NGZ =   57
 SYSTEM =  unknown system
 POSCAR =  Ga  O

 Startparameter for this run:
   NWRITE =      2    write-flag & timer
   PREC   = normal    normal or accurate (medium, high low for compatibility)
   ISTART =      1    job   : 0-new  1-cont  2-samecut
   ICHARG =      0    charge: 1-file 2-atom 10-const
   ISPIN  =      2    spin polarized calculation?
   LNONCOLLINEAR =      F non collinear calculations
   LSORBIT =      F    spin-orbit coupling
   INIWAV =      1    electr: 0-lowe 1-rand  2-diag
   LASPH  =      F    aspherical Exc in radial PAW
   METAGGA=      F    non-selfconsistent MetaGGA calc.

 Electronic Relaxation 1
   ENCUT  =  400.0 eV  29.40 Ry    5.42 a.u.  19.92 19.78 18.88*2*pi/ulx,y,z
   ENINI  =  400.0     initial cutoff
   ENAUG  =  605.4 eV  augmentation charge cutoff
   NELM   =     40;   NELMIN=  2; NELMDL=  0     # of ELM steps
[...]
   -.106E+03 0.196E+02 -.343E+02   0.104E+03 -.199E+02 0.363E+02   0.151E+01 0.174E+00 -.179E+01
   -.668E+01 0.665E+01 -.410E+02   0.786E+01 -.643E+01 0.461E+02   -.111E+01 -.205E+00 -.472E+01
   0.138E+03 -.297E+02 0.170E+02   -.137E+03 0.298E+02 -.201E+02   -.149E+01 -.114E+00 0.279E+01
   -.102E+03 -.228E+02 -.314E+02   0.101E+03 0.228E+02 0.334E+02   0.113E+01 -.174E-01 -.181E+01
   -.670E+01 0.286E+02 -.101E+03   0.644E+01 -.292E+02 0.105E+03   0.223E+00 0.581E+00 -.382E+01
   0.387E+02 -.273E+02 0.933E+02   -.406E+02 0.271E+02 -.988E+02   0.176E+01 0.134E+00 0.514E+01
   0.861E+01 0.162E+02 0.925E+02   -.857E+01 -.175E+02 -.968E+02   -.580E-02 0.114E+01 0.402E+01
   -.587E+02 -.191E+02 -.381E+01   0.574E+02 0.191E+02 0.618E+01   0.119E+01 0.286E-01 -.214E+01
   0.674E+02 -.206E+02 0.910E+01   -.652E+02 0.207E+02 -.107E+02   -.194E+01 -.103E+00 0.148E+01
   0.609E+02 0.835E+01 -.166E+03   -.623E+02 -.801E+01 0.171E+03   0.136E+01 -.319E+00 -.490E+01
   -.548E+02 0.847E+01 0.150E+03   0.566E+02 -.808E+01 -.155E+03   -.167E+01 -.367E+00 0.540E+01
   -.531E+02 0.304E+02 -.963E+02   0.569E+02 -.273E+02 0.986E+02   -.356E+01 -.283E+01 -.212E+01
   0.439E+02 0.259E+02 0.955E+02   -.483E+02 -.229E+02 -.973E+02   0.400E+01 -.272E+01 0.173E+01
   0.932E+02 0.101E+03 0.555E+02   -.902E+02 -.102E+03 -.570E+02   -.278E+01 0.156E+01 0.137E+01
   -.541E+02 -.291E+02 -.963E+02   0.580E+02 0.261E+02 0.986E+02   -.365E+01 0.281E+01 -.215E+01
   -.102E+03 0.113E+03 -.639E+02   0.983E+02 -.115E+03 0.650E+02   0.293E+01 0.173E+01 -.102E+01
   -.464E+02 -.192E+02 -.951E+02   0.479E+02 0.202E+02 0.998E+02   -.139E+01 -.889E+00 -.442E+01
   0.412E+02 -.443E+02 0.198E+02   -.405E+02 0.436E+02 -.220E+02   -.626E+00 0.644E+00 0.190E+01
   -.474E+02 -.380E+02 -.195E+02   0.450E+02 0.382E+02 0.228E+02   0.219E+01 -.176E+00 -.293E+01
   0.855E+02 -.936E+01 0.173E+02   -.828E+02 0.944E+01 -.191E+02   -.243E+01 -.757E-01 0.165E+01
   -.447E+01 -.413E+02 -.103E+03   0.433E+01 0.416E+02 0.108E+03   0.993E-01 -.232E+00 -.377E+01
   0.651E+01 -.294E+02 0.934E+02   -.657E+01 0.302E+02 -.977E+02   0.882E-01 -.746E+00 0.403E+01
   -.982E+02 -.122E+03 -.619E+02   0.957E+02 0.124E+03 0.629E+02   0.223E+01 -.146E+01 -.941E+00
   0.889E+02 -.109E+03 0.521E+02   -.867E+02 0.111E+03 -.535E+02   -.207E+01 -.125E+01 0.132E+01
   -.572E+02 -.644E+01 -.637E+02   0.598E+02 0.723E+01 0.674E+02   -.244E+01 -.732E+00 -.344E+01
   0.584E+02 -.117E+02 0.626E+02   -.611E+02 0.123E+02 -.662E+02   0.252E+01 -.561E+00 0.336E+01
   -.603E+02 0.164E+02 -.542E+01   0.587E+02 -.166E+02 0.770E+01   0.145E+01 0.152E+00 -.206E+01
   0.453E+02 -.256E+02 0.964E+02   -.497E+02 0.226E+02 -.982E+02   0.407E+01 0.273E+01 0.176E+01
   0.672E+02 -.108E+03 0.184E+03   -.691E+02 0.106E+03 -.187E+03   0.177E+01 0.217E+01 0.340E+01
   0.693E+02 0.176E+02 0.110E+02   -.669E+02 -.179E+02 -.126E+02   -.223E+01 0.236E+00 0.146E+01
   -.501E+02 0.744E+01 0.438E+02   0.472E+02 -.722E+01 -.459E+02   0.264E+01 -.209E+00 0.187E+01
   0.193E+02 0.698E+01 -.379E+02   -.190E+02 -.668E+01 0.419E+02   -.191E+00 -.287E+00 -.356E+01
   0.248E+02 0.103E+02 0.536E+02   -.235E+02 -.986E+01 -.588E+02   -.114E+01 -.379E+00 0.477E+01
   0.705E+02 0.106E+03 0.183E+03   -.725E+02 -.104E+03 -.186E+03   0.181E+01 -.202E+01 0.335E+01
   -.949E+02 0.123E+02 -.137E+03   0.948E+02 -.222E+02 0.149E+03   0.635E-02 0.895E+01 -.115E+02
   -.906E+02 -.125E+02 -.190E+02   0.888E+02 0.127E+02 0.216E+02   0.162E+01 -.104E+00 -.227E+01
   0.984E+02 -.176E+02 0.134E+02   -.959E+02 0.181E+02 -.164E+02   -.224E+01 -.406E+00 0.273E+01
   -.155E+02 -.289E+02 -.483E+02   0.175E+02 0.287E+02 0.541E+02   -.187E+01 0.198E+00 -.532E+01
   0.175E+02 -.658E+01 0.727E+02   -.179E+02 0.826E+01 -.763E+02   0.414E+00 -.154E+01 0.334E+01
   -.908E+02 -.131E+02 -.137E+03   0.906E+02 0.231E+02 0.150E+03   0.789E-01 -.904E+01 -.115E+02
   -.831E+02 0.100E+02 -.134E+02   0.813E+02 -.988E+01 0.156E+02   0.163E+01 -.137E+00 -.203E+01
   0.822E+02 0.119E+02 0.151E+02   -.802E+02 -.119E+02 -.169E+02   -.185E+01 -.377E-01 0.166E+01
   -.145E+02 0.522E+01 -.825E+02   0.158E+02 -.512E+01 0.868E+02   -.121E+01 -.989E-01 -.403E+01
   0.125E+02 0.582E+01 0.798E+02   -.137E+02 -.571E+01 -.843E+02   0.106E+01 -.107E+00 0.419E+01
   -.603E+02 0.664E+01 -.145E+02   0.591E+02 -.626E+01 0.164E+02   0.111E+01 -.350E+00 -.165E+01
   0.657E+02 0.702E+01 0.120E+02   -.645E+02 -.664E+01 -.144E+02   -.112E+01 -.336E+00 0.216E+01
   -.569E+02 0.601E+01 -.651E+02   0.593E+02 -.674E+01 0.688E+02   -.218E+01 0.676E+00 -.343E+01
   0.579E+02 0.110E+02 0.648E+02   -.604E+02 -.115E+02 -.684E+02   0.229E+01 0.546E+00 0.334E+01
   -.872E+02 0.143E+02 -.163E+02   0.860E+02 -.144E+02 0.189E+02   0.111E+01 0.772E-01 -.235E+01
   0.945E+02 0.181E+02 0.110E+02   -.926E+02 -.184E+02 -.140E+02   -.172E+01 0.271E+00 0.277E+01
   -.226E+02 0.632E+01 -.649E+02   0.237E+02 -.617E+01 0.698E+02   -.975E+00 -.155E+00 -.457E+01
   0.263E+02 0.643E+01 0.718E+02   -.269E+02 -.627E+01 -.763E+02   0.543E+00 -.162E+00 0.418E+01
   -.695E+02 0.720E+01 -.157E+02   0.673E+02 -.695E+01 0.187E+02   0.199E+01 -.226E+00 -.270E+01
[...]
   -.547E+02 0.353E+01 0.602E+02   0.540E+02 -.356E+01 -.551E+02   0.532E+00 -.588E-01 -.433E+01
   0.534E+02 0.361E+01 -.614E+02   -.524E+02 -.367E+01 0.563E+02   -.798E+00 -.341E-01 0.435E+01
   -.111E+03 0.360E+01 0.895E+02   0.123E+03 -.383E+01 -.887E+02   -.931E+01 0.191E+00 -.606E+00
   0.113E+03 0.388E+01 -.906E+02   -.125E+03 -.383E+01 0.904E+02   0.938E+01 -.607E-01 0.114E+00
   -.196E+02 0.106E+01 -.132E+02   0.284E+02 -.951E+00 0.150E+02   -.740E+01 -.219E+00 -.150E+01
   0.165E+02 0.126E+01 0.123E+02   -.245E+02 -.115E+01 -.141E+02   0.668E+01 -.217E+00 0.142E+01
   -.372E+02 0.113E+02 0.562E+02   0.366E+02 -.115E+02 -.508E+02   0.428E+00 0.185E+00 -.460E+01
   0.367E+02 0.799E+01 -.552E+02   -.358E+02 -.837E+01 0.496E+02   -.616E+00 0.292E+00 0.485E+01
   -.104E+03 0.179E+01 0.103E+03   0.115E+03 -.166E+01 -.104E+03   -.959E+01 -.228E+00 0.604E+00
   0.102E+03 0.167E+01 -.970E+02   -.113E+03 -.148E+01 0.965E+02   0.950E+01 -.275E+00 0.345E+00
   -.209E+02 0.112E+02 -.732E+01   0.286E+02 -.113E+02 0.913E+01   -.650E+01 0.117E+00 -.146E+01
   0.241E+02 0.823E+01 0.951E+01   -.326E+02 -.800E+01 -.115E+02   0.718E+01 -.200E+00 0.164E+01
   -.555E+02 0.429E+01 0.422E+02   0.553E+02 -.434E+01 -.357E+02   0.648E-01 -.346E-01 -.558E+01
   0.553E+02 0.433E+01 -.466E+02   -.553E+02 -.442E+01 0.408E+02   0.666E-01 -.165E-02 0.494E+01
   0.822E+00 0.187E+01 0.350E+02   0.412E-12 -.215E-11 0.597E-12   -.541E+00 -.168E+01 -.311E+02

 POSITION                                       TOTAL-FORCE (eV/Angst)
      5.92236      4.55755      1.42288        -0.002407      0.010856      0.009401
      1.07256      0.00297      4.32735        -0.001095     -0.004611     -0.008061
      4.86338      7.58010      5.80867        -0.003869      0.004724     -0.006725
      6.98242      7.57925      8.66697        -0.005187     -0.001295      0.002539
      1.89939      7.57054      7.13007        -0.000884     -0.002019     -0.009308
      9.98375      7.58147      7.33168        -0.006696     -0.000286      0.002072
     10.81369      6.06776      4.33272        -0.002086      0.001678     -0.008906
      1.09093      6.05538     10.10125        -0.003508     -0.004639      0.005113
      9.96860      4.54997      7.33816        -0.003042      0.004822      0.002892
     10.82709      3.02998      4.32738        -0.003294     -0.001492     -0.004661
      1.07328      3.03687     10.10519         0.002405     -0.003737      0.002458
      9.95965      7.58414      1.53584         0.004893      0.006225     -0.009138
      7.81480      0.00067      5.64596        -0.002051      0.004449      0.002345
      1.90057      7.58197      1.34424         0.003078      0.000552      0.005306
      1.01739      3.04094      4.31276        -0.000628      0.007552     -0.003563
     10.84830      3.04192     -1.44883         0.010638      0.006338      0.003224
      9.86161      4.55225      1.57038         0.001927      0.004558     -0.011841
      2.01921      4.54888      1.27498         0.001206     -0.004932     -0.011145
      4.01403      3.05571      3.05001        -0.008320     -0.005210     -0.004124
      7.85477      3.05604     -0.17312         0.003604     -0.001182      0.001277
      4.88886      7.44880      0.02640         0.006003     -0.008308      0.006671
      4.01229      6.05169      3.04236        -0.008631      0.001916     -0.002920
      6.96997      7.44767      2.84994        -0.003013     -0.013915     -0.004936
      4.04763      0.01931      8.79323        -0.002359     -0.003360      0.000750
      4.86458      1.51327      5.81028        -0.011014     -0.000675     -0.006660
      6.98302      1.51261      8.66493         0.002561      0.001511      0.003871
     10.78773      0.00113     -1.44386         0.003516     -0.007771      0.001756
      9.95303      1.51294      1.53146         0.008523      0.000178     -0.000075
      1.90728      1.51035      1.34944        -0.000215     -0.004780     -0.007056
      6.95560      1.64978      2.85040        -0.002358     -0.003906     -0.003629
      4.90443      1.64612      0.02814         0.005233     -0.001683      0.002401
      4.07292      0.01454      2.96734        -0.001791     -0.001562     -0.007568
      7.78874      0.01206     -0.08796         0.003208      0.002792      0.004381
      1.03100      6.05500      4.31022         0.000837      0.000428     -0.006012
      7.85574      6.04986     -0.16642         0.000490      0.003141     -0.000187
      7.80835      2.99207      5.71290        -0.004682      0.004767     -0.002984
     10.83410      6.05348     -1.44656         0.004164      0.002867     -0.001183
      4.87021      4.55042      5.78067        -0.014584      0.001976     -0.001496
      6.95053      4.54770      8.67983         0.000372     -0.001323      0.015695
      1.91661      4.54847      7.10305        -0.006248     -0.002593     -0.003768
      7.80764      6.10573      5.72629        -0.008595     -0.005107     -0.008470
      4.02567      6.01123      8.85584         0.001561     -0.000728      0.010921
      1.06685     12.13076     10.11990         0.000449      0.005209      0.011162
     10.79553     12.12799      4.32989         0.001029      0.007137     -0.003877
      9.98091      1.51052      7.32989        -0.001631      0.003431      0.001953
      1.90309      1.51963      7.13450        -0.004248      0.001699     -0.002323
      4.02345      3.09197      8.88375        -0.001522     -0.002905      0.001709
      1.05575      9.10097      4.32803        -0.000442      0.000166     -0.009421
     10.80489      9.10318     -1.44589         0.000344     -0.002307      0.004053
      9.96256     10.62140      1.52246         0.001660     -0.002948     -0.006388
      1.90058     10.61979      1.35180        -0.005400     -0.005277      0.005952
      6.96633     10.61054      2.86335        -0.006099     -0.004784     -0.004583
      4.89021     10.61025     -0.00004         0.005695     -0.003492      0.002967
      4.06585      9.08465      2.97577         0.004034     -0.004642     -0.006731
      7.79498      9.08648     -0.09640         0.000287     -0.004053      0.000489
      1.04946      9.09993     10.11932        -0.001499     -0.001367      0.010231
     10.81135      9.10539      4.33027         0.001752     -0.002647     -0.010915
      9.96207     10.61856      7.31867        -0.003638     -0.000835      0.004045
      1.90420     10.61787      7.14009        -0.000584      0.003280      0.002123
      6.99464     10.61474      8.66042         0.004879      0.009451      0.007918
[...]
      5.98942      9.04853      2.85316         0.004287     -0.000705      0.002401
      3.90292     10.61832      1.58177        -0.001920     -0.000740     -0.003135
      7.95808     10.61924      1.29034         0.003453      0.000627      0.010462
      1.93178      9.10319      5.93188         0.002089      0.005924      0.007028
      9.92801      9.10485      8.52403        -0.001249      0.003253     -0.005353
     11.83151     10.62507      4.37358         0.002291      0.003649     -0.000688
      0.02577     10.62449     10.08296        -0.005048      0.002176     -0.000059
      9.81195      9.09517      5.90612        -0.007885      0.000137     -0.002593
      2.04550      9.10871      8.54945         0.011035     -0.001434      0.001365
      7.87227     10.62117      4.45851         0.004621     -0.001895      0.007848
      3.99770     10.62268      9.98044        -0.000138     -0.004912     -0.007229
      5.90069      9.09638      5.82532         0.000957     -0.010382      0.000010
      5.96909      9.10006      8.62573        -0.008661      0.003028     -0.002161
      3.88860     10.61724      7.36960        -0.001806      0.004317     -0.003596
      7.97792     10.61896      7.07620         0.000700      0.004791      0.000562
    total drift:                               -0.147201     -0.134155      0.162090

  FREE ENERGIE OF THE ION-ELECTRON SYSTEM (eV)
  free  energy   TOTEN  =     -1492.29411540 eV

  energy  without entropy=    -1492.29411540  energy(sigma->0) =    -1492.29411540

 d Force = 0.2021898E-04[-0.854E-04, 0.126E-03]  d Energy = 0.3185804E-04-0.116E-04
 d Force =-0.4111963E-01[-0.424E-01,-0.398E-01]  d Ewald  =-0.4112001E-01 0.373E-06

 reached required accuracy - stopping structural energy minimisation
 writing wavefunctions

 total charge

[...]

 magnetization (x)

# of ion     s       p       d       tot
  1       -0.000  -0.000  -0.000  -0.000
  2        0.000   0.000   0.000   0.000
  3       -0.000   0.000   0.000   0.000
  4       -0.000  -0.000   0.000  -0.000
  5       -0.000  -0.000  -0.000  -0.000
  6       -0.000   0.000   0.000   0.001
  7       -0.000  -0.000  -0.000  -0.001
  8       -0.000  -0.000   0.000  -0.000
  9       -0.000  -0.000  -0.000  -0.000
 10       -0.000  -0.000  -0.000  -0.001
 11       -0.000  -0.000  -0.000  -0.000
 12       -0.000   0.000   0.000   0.000
 13       -0.000  -0.000  -0.000  -0.000
 14        0.000  -0.000   0.000   0.000
 15       -0.000  -0.000   0.000  -0.000
 16       -0.000   0.000   0.000   0.000
 17       -0.000  -0.000  -0.000  -0.000
 18        0.000  -0.000   0.000   0.000
 19       -0.000   0.000   0.000   0.000
 20       -0.000  -0.000   0.000  -0.000
 21       -0.000  -0.000  -0.000  -0.000
 22       -0.000   0.000   0.000   0.000
 23       -0.000  -0.000  -0.000  -0.000
 24       -0.000   0.000   0.000   0.000
 25       -0.000   0.000   0.000   0.000
 26       -0.000  -0.000   0.000  -0.000
 27        0.000   0.000   0.000   0.000
 28       -0.000   0.000   0.000   0.000
 29        0.000   0.000   0.000   0.000
 30       -0.000  -0.000  -0.000  -0.000
 31       -0.000  -0.000  -0.000  -0.000
 32       -0.000  -0.000  -0.000  -0.000
 33       -0.000  -0.000  -0.000  -0.000
 34       -0.000  -0.000   0.000  -0.000
 35       -0.000  -0.000   0.000  -0.000
 36       -0.005  -0.008   0.000  -0.013
 37       -0.000   0.000   0.000   0.000
 38       -0.000  -0.000  -0.000  -0.000
 39       -0.000   0.000   0.000   0.000
 40       -0.000  -0.000  -0.000  -0.000
 41       -0.005  -0.008   0.000  -0.013
 42        0.000   0.000   0.000   0.000
 43        0.000   0.000   0.000   0.000
 44       -0.000  -0.000   0.000  -0.000
 45       -0.000   0.000   0.000   0.000
 46       -0.000  -0.000  -0.000  -0.000
 47        0.000  -0.000   0.000   0.000
 48        0.000   0.000   0.000   0.000
 49       -0.000   0.000   0.000   0.000
 50       -0.000   0.000   0.000  -0.000
 51        0.000   0.000   0.000   0.000
 52       -0.000  -0.000   0.000  -0.000
 53       -0.000  -0.000   0.000  -0.000
 54       -0.000  -0.000  -0.000  -0.000
 55       -0.000  -0.000  -0.000  -0.000
 56        0.000   0.000   0.000   0.000
 57       -0.000  -0.000   0.000   0.000
 58       -0.000  -0.000   0.000  -0.000
 59        0.000   0.000   0.000   0.000
 60       -0.000  -0.000   0.000  -0.000
[...]
145       -0.000  -0.000   0.000  -0.000
146        0.000   0.000   0.000   0.000
147       -0.000   0.000   0.000   0.000
148        0.000   0.000   0.000   0.000
149        0.000   0.000   0.000   0.000
150        0.000   0.000   0.000   0.000
151        0.000   0.000   0.000   0.000
152       -0.000   0.000   0.000   0.000
153        0.000   0.000   0.000   0.000
154       -0.000  -0.000   0.000  -0.000
155        0.000   0.000   0.000   0.000
156       -0.000   0.000   0.000   0.000
157       -0.000   0.000   0.000   0.000
158       -0.000   0.000   0.000   0.000
159        0.000   0.000   0.000   0.000
tot        0.003   0.794   0.002   0.799