 vasp.5.4.4.18Apr17-6-g9f103f2a35 (build Jun 06 2017 17:32:29) complex

 executed on      LLNL_Quartz_ifc date 2020.03.09  21:13:20

 INCAR:
 POTCAR:   PAW_PBE Ga_d 06Sep2000
 POTCAR:   PAW_PBE Fe_pv 06Sep2000
 POTCAR:   PAW_PBE O 08Apr2002

 POTCAR:   PAW_PBE Ga_d 06Sep2000
   VRHFIN =Ga: s2p1

   TITEL  = PAW_PBE Ga_d 06Sep2000
   POMASS =   69.723; ZVAL   =   13.000    mass and valenz
   ENMAX  =  282.697; ENMIN  =  212.022 eV
   QCUT   =   -4.558; QGAM   =    9.117    optimization parameters

   Description
     l     E      TYP  RCUT    TYP  RCUT
     2   .000     23  2.300
     2  -.400     23  2.300
     0   .000     23  2.300
     0   .000     23  2.300
     1   .000     23  2.300
     1   .000     23  2.300
     3  -.100      7  2.300

 POTCAR:   PAW_PBE Fe_pv 06Sep2000
   VRHFIN =Fe:  3pd7s1

   TITEL  = PAW_PBE Fe_pv 06Sep2000
   POMASS =   55.847; ZVAL   =   14.000    mass and valenz
   ENMAX  =  293.238; ENMIN  =  219.929 eV
   QCUT   =   -4.642; QGAM   =    9.285    optimization parameters

[...]

 POTCAR:   PAW_PBE O 08Apr2002
   VRHFIN =O: s2p4

   TITEL  = PAW_PBE O 08Apr2002
   POMASS =   16.000; ZVAL   =    6.000    mass and valenz
   ENMAX  =  400.000; ENMIN  =  300.000 eV
   QCUT   =   -5.520; QGAM   =   11.041    optimization parameters

   Description
     l     E      TYP  RCUT    TYP  RCUT
     0   .000     23  1.200
     0  -.700     23  1.200
     1   .000     23  1.520
     1   .600     23  1.520
     2   .000      7  1.500

 Optimization of the real space projectors (new method)

 maximal supplied QI-value         = 16.25
 optimisation between [QCUT,QGAM] = [ 10.24, 20.48] = [ 29.35,117.42] Ry
 Optimized for a Real-space Cutoff    1.38 Angstroem

   l    n(q)    QCUT    max X(q) W(low)/X(q) W(high)/X(q)  e(spline)
   2      7    10.239     6.328    0.33E-04    0.68E-04    0.30E-07
   2      7    10.239     9.625    0.20E-03    0.23E-03    0.80E-07
   0      8    10.239     9.711    0.17E-04    0.17E-04    0.13E-07
   0      8    10.239    32.764    0.56E-04    0.14E-03    0.62E-07
   1      8    10.239     7.413    0.78E-04    0.28E-04    0.38E-07
   1      8    10.239    31.472    0.43E-03    0.30E-03    0.73E-07
 Optimization of the real space projectors (new method)

[...]

   l    n(q)    QCUT    max X(q) W(low)/X(q) W(high)/X(q)  e(spline)
   1      9    10.205     4.550    0.11E-04    0.61E-05    0.27E-07
   1      9    10.205     5.234    0.14E-04    0.12E-03    0.13E-06
   2      8    10.205     3.960    0.41E-04    0.45E-04    0.45E-07
   2      8    10.205    29.565    0.45E-03    0.40E-03    0.42E-06
   0      9    10.205    23.582    0.19E-04    0.16E-05    0.90E-08
   0      9    10.205    39.747    0.62E-04    0.50E-04    0.87E-07
 Optimization of the real space projectors (new method)

 maximal supplied QI-value         = 24.76
 optimisation between [QCUT,QGAM] = [ 10.15, 20.30] = [ 28.85,115.39] Ry
 Optimized for a Real-space Cutoff    1.30 Angstroem

   l    n(q)    QCUT    max X(q) W(low)/X(q) W(high)/X(q)  e(spline)
   0      8    10.150     4.192    0.55E-04    0.58E-04    0.78E-07
   0      8    10.150     8.473    0.46E-03    0.68E-03    0.23E-06
   1      7    10.150     2.474    0.11E-03    0.93E-04    0.33E-07
   1      7    10.150     3.912    0.46E-03    0.50E-03    0.15E-06
 PAW_PBE Ga_d 06Sep2000                 :
 PAW_PBE Fe_pv 06Sep2000                :
 PAW_PBE O 08Apr2002                    :

 POSCAR: Ga Fe  O
  positions in direct lattice
  velocities in cartesian coordinates
 exchange correlation table for  LEXCH =        8
   RHO(1)=    0.500       N(1)  =     2000
   RHO(2)=  100.500       N(2)  =     4000

 ion  position               nearest neighbor table
   1  0.091  1.000  0.396-  99 1.82 108 1.83 140 1.83 106 1.85
   2  0.411  0.625  0.603-  85 1.82  72 1.83 157 1.83 121 1.87
   3  0.589  0.625  0.896-  86 1.83  71 1.83 158 1.83 136 1.86
   4  0.159  0.625  0.656-  80 1.93  78 1.93 149 1.94 121 2.01  75 2.07 154 2.08
   5  0.840  0.625  0.844-  77 1.93  79 1.94 150 1.94 136 2.00  76 2.07 153 2.08
   6  0.910  0.500  0.604-  90 1.82  78 1.83 118 1.83  76 1.86
   7  0.089  0.500  0.896-  68 1.82  77 1.83 117 1.83  75 1.86
   8  0.840  0.375  0.844- 117 1.93 119 1.94  79 1.94  65 2.00  76 2.08 116 2.08
   9  0.911  0.250  0.604- 131 1.83 118 1.83  97 1.83 116 1.86
  10  0.089  0.250  0.896- 132 1.82  96 1.84 117 1.84  93 1.86
  11  0.841  0.625  0.344-  89 1.93  90 1.94 138 1.94  81 2.01  88 2.07 141 2.08
  12  0.660  1.000  0.657- 114 1.92 102 1.93 155 1.94  95 2.01 160 2.07 133 2.07
  13  0.160  0.625  0.156-  68 1.93  70 1.94 137 1.94  82 2.01  87 2.04 142 2.08
  14  0.090  0.250  0.395- 120 1.83 127 1.84 108 1.84 129 1.84
  15  0.913  0.250  0.104- 130 1.83 109 1.83 119 1.83 128 1.86
  16  0.841  0.375  0.344- 129 1.92  90 1.94 131 1.94  92 2.00  88 2.07 128 2.08
  17  0.161  0.375  0.157- 130 1.95 132 1.95  68 1.95 122 1.97 127 2.04  87 2.08
  18  0.592  0.376  0.397- 123 1.80 135 1.83  83 1.83  92 1.86
  19  0.410  0.376  0.104-  91 1.83 122 1.83  69 1.83 124 1.84
  20  0.660  0.250  0.156- 124 1.94 126 1.94 105 1.94 128 2.02  92 2.08 100 2.08
  21  0.411  0.625  0.104-  69 1.83  73 1.83 145 1.83  82 1.86
  22  0.341  0.499  0.344- 125 1.88  83 1.95  85 1.95 122 2.02  87 2.03  82 2.09
  23  0.590  0.625  0.396-  83 1.82  74 1.83 146 1.83  81 1.86
  24  0.341  0.000  0.844- 113 1.93 115 1.93 156 1.94  94 2.01 134 2.06 159 2.07
  25  0.410  0.124  0.602- 104 1.79 114 1.84  84 1.84 134 1.87
  26  0.589  0.125  0.896- 105 1.83 115 1.83  67 1.83 133 1.86
  27  0.911  1.000  0.104- 109 1.82 139 1.82  98 1.83 107 1.86
  28  0.841  0.125  0.344- 108 1.92 110 1.94 131 1.94 100 2.00 107 2.07 128 2.08
  29  0.161  0.125  0.157- 109 1.95 132 1.95 111 1.95 101 1.97 127 2.04 106 2.08
  30  0.592  0.124  0.397- 123 1.80 102 1.83 103 1.83 100 1.86
  31  0.411  0.124  0.104- 113 1.83 101 1.83 112 1.83 124 1.84
  32  0.341  0.001  0.344- 104 1.88 103 1.95 144 1.95 101 2.02 106 2.03 147 2.09
  33  0.660  0.000  0.156- 112 1.92 105 1.94 143 1.94 107 2.01 100 2.05 148 2.07
  34  0.091  0.500  0.396-  80 1.82 129 1.83  89 1.83  87 1.85
  35  0.660  0.500  0.156-  69 1.92  86 1.94 126 1.94  88 2.01  92 2.05  81 2.07
  36  0.659  0.250  0.655-  84 1.93 102 1.94 135 1.94 116 2.02 133 2.09  65 2.09
  37  0.911  0.500  0.104- 130 1.82  70 1.82  79 1.83  88 1.86
  38  0.410  0.376  0.602- 125 1.79  72 1.84  84 1.84  66 1.87
  39  0.589  0.375  0.896- 126 1.83  71 1.83  67 1.83  65 1.86
  40  0.160  0.375  0.655-  80 1.93 120 1.93 118 1.94  66 2.01  93 2.08  75 2.08
  41  0.660  0.500  0.657-  72 1.92 135 1.93  74 1.94  76 2.01 136 2.07  65 2.07
  42  0.341  0.500  0.844-  91 1.93  71 1.93  73 1.94  75 2.01  66 2.06 121 2.07
  43  0.089  1.000  0.896- 111 1.82 152 1.83  96 1.83  94 1.86
  44  0.910  1.000  0.604- 110 1.82 151 1.83  97 1.83  95 1.86
  45  0.840  0.125  0.844-  96 1.93 119 1.94  98 1.94 133 2.00  95 2.08 116 2.08
  46  0.160  0.125  0.655-  99 1.93 120 1.93  97 1.94 134 2.01  93 2.08  94 2.08
  47  0.340  0.250  0.844-  67 1.93 113 1.94  91 1.94  93 2.01  66 2.08 134 2.08
  48  0.089  0.750  0.396- 149 1.83 140 1.83  89 1.83 142 1.86
  49  0.911  0.750  0.104- 150 1.83 139 1.83  70 1.83 141 1.86
  50  0.841  0.875  0.344- 140 1.93 110 1.94 138 1.94 148 2.01 107 2.07 141 2.08
  51  0.160  0.876  0.156- 111 1.93 139 1.94 137 1.94 147 2.01 106 2.04 142 2.08
  52  0.590  0.875  0.396- 103 1.82 155 1.83 146 1.83 148 1.86
  53  0.411  0.875  0.104- 156 1.83 112 1.83 145 1.83 147 1.86
  54  0.341  0.750  0.344- 144 1.93  85 1.93 146 1.94 142 2.02 147 2.06  82 2.06
  55  0.660  0.750  0.156- 145 1.93  86 1.94 143 1.94 141 2.01  81 2.08 148 2.08
  56  0.089  0.750  0.897- 137 1.82  77 1.83 152 1.83 154 1.86
  57  0.911  0.750  0.604- 138 1.83 151 1.83  78 1.83 153 1.86
  58  0.840  0.875  0.844- 152 1.93  98 1.94 150 1.94 160 2.00  95 2.07 153 2.08
  59  0.159  0.875  0.656-  99 1.93 151 1.93 149 1.94 159 2.01  94 2.07 154 2.08
  60  0.589  0.875  0.896- 143 1.83 115 1.83 158 1.83 160 1.86
[...]
 146  0.504  0.750  0.372-  52 1.83  23 1.83  54 1.94
 147  0.328  0.874  0.219-  53 1.86  51 2.01  54 2.06  32 2.09
 148  0.673  0.875  0.281-  52 1.86  50 2.01  33 2.07  55 2.08
 149  0.163  0.750  0.553-  48 1.83  59 1.94   4 1.94
 150  0.836  0.750  0.947-  49 1.83  58 1.94   5 1.94
 151  0.997  0.876  0.628-  44 1.83  57 1.83  59 1.93
 152  0.003  0.875  0.872-  43 1.83  56 1.83  58 1.93
 153  0.827  0.750  0.719-  57 1.86  63 2.01   5 2.08  58 2.08
 154  0.172  0.750  0.781-  56 1.86  62 2.01  59 2.08   4 2.08
 155  0.665  0.875  0.553-  52 1.83  12 1.94  63 1.94
 156  0.336  0.876  0.947-  53 1.83  24 1.94  62 1.94
 157  0.497  0.750  0.628-  61 1.83   2 1.83  63 1.93
 158  0.503  0.750  0.873-  60 1.83   3 1.83  62 1.93
 159  0.328  0.875  0.719-  61 1.87  59 2.01  24 2.07  62 2.08
 160  0.673  0.875  0.781-  60 1.86  58 2.00  12 2.07  63 2.08

  LATTYP: Found a simple monoclinic cell.
 ALAT       =    14.6889751464
 B/A-ratio  =     0.8259161174
 C/A-ratio  =     1.5972413798
 COS(beta)  =    -0.9171837574

  Lattice vectors:

 A1 = ( -11.8609006218,   0.0000000000,  -8.6651617002)
 A2 = (   0.0000000000, -12.1318613217,   0.0000000000)
 A3 = (  11.8609006218,   0.0000000000,  20.2429474736)

Analysis of symmetry for initial positions (statically):
 Subroutine PRICEL returns:
 Original cell was already a primitive cell.

 Routine SETGRP: Setting up the symmetry group for a
 simple monoclinic supercell.

 Subroutine GETGRP returns: Found  1 space group operations
 (whereof  1 operations were pure point group operations)
 out of a pool of  4 trial point group operations.

The static configuration has the point symmetry C_1 .

Analysis of symmetry for dynamics (positions and initial velocities):
 Subroutine PRICEL returns:
 Original cell was already a primitive cell.

[...]

The dynamic configuration has the point symmetry C_1 .

Analysis of constrained symmetry for selective dynamics:
 Subroutine PRICEL returns:
 Original cell was already a primitive cell.

[...]

The constrained configuration has the point symmetry C_1 .

Analysis of structural, dynamic, and magnetic symmetry:
 Subroutine PRICEL returns:
 Original cell was already a primitive cell.

 Routine SETGRP: Setting up the symmetry group for a
 simple monoclinic supercell.

 Subroutine GETGRP returns: Found  1 space group operations
 (whereof  1 operations were pure point group operations)
 out of a pool of  4 trial point group operations.

The magnetic configuration has the point symmetry C_1 .

 Subroutine INISYM returns: Found  1 space group operations
 (whereof  1 operations are pure point group operations),
 and found     1 'primitive' translations

 KPOINTS: KPOINTS created by Atomic Simulation Env
  k-points in reciprocal lattice
Space group operators:
 irot       det(A)        alpha          n_x          n_y          n_z        tau_x        tau_y        tau_z
    1     1.000000     0.000000     1.000000     0.000000     0.000000     0.000000     0.000000     0.000000

 Subroutine IBZKPT_HF returns following result:

 Found      2 k-points in 1st BZ
 the following      2 k-points will be used (e.g. in the exchange kernel)
 Following reciprocal coordinates:   # in IRBZ
[...]
   -.702E+02 -.965E-01 -.876E+01   0.690E+02 0.118E+00 0.118E+02   0.101E+01 -.116E-01 -.278E+01
   -.360E+02 -.548E+01 -.749E+02   0.374E+02 0.520E+01 0.794E+02   -.130E+01 0.264E+00 -.426E+01
   0.418E+02 -.269E+01 0.698E+02   -.436E+02 0.313E+01 -.748E+02   0.172E+01 -.398E+00 0.463E+01
   0.331E+02 -.134E+02 0.795E+02   -.343E+02 0.124E+02 -.838E+02   0.111E+01 0.913E+00 0.399E+01
   -.800E+02 0.203E+00 -.291E+02   0.787E+02 -.191E+00 0.296E+02   0.122E+01 -.119E-01 -.453E+00
   0.784E+02 -.259E-01 0.123E+02   -.765E+02 0.298E-01 -.148E+02   -.180E+01 -.384E-02 0.223E+01
   -.395E+02 0.909E+01 -.716E+02   0.408E+02 -.897E+01 0.761E+02   -.121E+01 -.115E+00 -.417E+01
   0.427E+02 0.797E+01 0.799E+02   -.418E+02 -.858E+01 -.834E+02   -.751E+00 0.572E+00 0.331E+01
   -.618E+02 -.653E+01 -.175E+02   0.583E+02 0.372E+01 0.198E+02   0.319E+01 0.254E+01 -.206E+01
   0.537E+02 0.284E+02 0.185E+02   -.537E+02 -.273E+02 -.191E+02   -.220E-01 -.971E+00 0.514E+00
   0.436E+02 0.820E-01 0.719E+02   -.450E+02 -.801E-01 -.766E+02   0.126E+01 -.579E-02 0.447E+01
   0.714E+02 -.616E+01 0.180E+02   -.695E+02 0.598E+01 -.201E+02   -.174E+01 0.166E+00 0.186E+01
   -.549E+02 -.151E+02 -.676E+02   0.557E+02 0.111E+02 0.738E+02   -.772E+00 0.367E+01 -.579E+01
   -.695E+02 -.551E+01 -.150E+02   0.670E+02 0.489E+01 0.174E+02   0.234E+01 0.565E+00 -.212E+01
   -.375E+02 0.394E+01 -.703E+02   0.388E+02 -.336E+01 0.751E+02   -.115E+01 -.538E+00 -.447E+01
   0.511E+02 -.311E+02 0.509E+01   -.518E+02 0.298E+02 -.107E+02   0.652E+00 0.125E+01 0.510E+01
   -.681E+02 -.100E+02 -.113E+02   0.664E+02 0.989E+01 0.137E+02   0.159E+01 0.108E+00 -.216E+01
   0.790E+02 -.341E+01 0.138E+02   -.765E+02 0.369E+01 -.162E+02   -.236E+01 -.247E+00 0.213E+01
   -.395E+02 -.918E+01 -.719E+02   0.407E+02 0.906E+01 0.763E+02   -.120E+01 0.111E+00 -.415E+01
   0.426E+02 -.813E+01 0.796E+02   -.417E+02 0.874E+01 -.832E+02   -.747E+00 -.570E+00 0.331E+01
   -.618E+02 0.632E+01 -.175E+02   0.583E+02 -.352E+01 0.197E+02   0.318E+01 -.253E+01 -.205E+01
   0.536E+02 -.286E+02 0.183E+02   -.536E+02 0.276E+02 -.189E+02   -.159E-01 0.983E+00 0.524E+00
   -.548E+02 0.146E+02 -.676E+02   0.556E+02 -.107E+02 0.738E+02   -.776E+00 -.366E+01 -.580E+01
   0.394E+02 -.911E+00 0.765E+02   -.411E+02 0.128E+01 -.808E+02   0.158E+01 -.351E+00 0.406E+01
   -.734E+02 0.210E+01 -.199E+02   0.714E+02 -.208E+01 0.216E+02   0.183E+01 -.237E-01 -.159E+01
   0.395E+02 0.832E+00 0.765E+02   -.412E+02 -.120E+01 -.808E+02   0.158E+01 0.350E+00 0.406E+01
   0.481E+02 -.160E+00 0.692E+02   -.495E+02 0.156E+00 -.741E+02   0.134E+01 0.561E-02 0.457E+01
   0.790E+02 0.307E+01 0.139E+02   -.765E+02 -.337E+01 -.162E+02   -.236E+01 0.269E+00 0.213E+01
   0.511E+02 0.308E+02 0.506E+01   -.518E+02 -.295E+02 -.107E+02   0.642E+00 -.124E+01 0.510E+01
   -.681E+02 0.982E+01 -.113E+02   0.664E+02 -.971E+01 0.137E+02   0.160E+01 -.108E+00 -.216E+01
   0.329E+02 0.933E+01 0.700E+02   -.340E+02 -.923E+01 -.750E+02   0.978E+00 -.107E+00 0.473E+01
   0.418E+02 0.257E+01 0.698E+02   -.436E+02 -.301E+01 -.748E+02   0.171E+01 0.403E+00 0.463E+01
   -.374E+02 -.407E+01 -.704E+02   0.386E+02 0.349E+01 0.751E+02   -.116E+01 0.541E+00 -.447E+01
   -.769E+02 -.312E+01 -.724E+01   0.753E+02 0.308E+01 0.105E+02   0.151E+01 0.395E-01 -.295E+01
   0.734E+02 -.240E+01 0.150E+02   -.711E+02 0.245E+01 -.174E+02   -.206E+01 -.375E-01 0.217E+01
   -.330E+02 -.839E+01 -.726E+02   0.342E+02 0.841E+01 0.774E+02   -.116E+01 -.109E-01 -.443E+01
   0.329E+02 -.953E+01 0.701E+02   -.339E+02 0.942E+01 -.752E+02   0.979E+00 0.111E+00 0.473E+01
   -.392E+02 -.102E-02 -.699E+02   0.403E+02 0.971E-02 0.746E+02   -.111E+01 -.789E-02 -.440E+01
   -.751E+02 0.158E+00 -.175E+02   0.734E+02 -.157E+00 0.196E+02   0.160E+01 -.245E-02 -.191E+01
   0.747E+02 0.161E+00 0.128E+02   -.725E+02 -.159E+00 -.152E+02   -.204E+01 -.120E-02 0.218E+01
   -.361E+02 0.564E+01 -.749E+02   0.375E+02 -.536E+01 0.794E+02   -.129E+01 -.269E+00 -.426E+01
   0.334E+02 0.134E+02 0.793E+02   -.346E+02 -.125E+02 -.836E+02   0.110E+01 -.912E+00 0.400E+01
   -.696E+02 0.559E+01 -.150E+02   0.670E+02 -.498E+01 0.174E+02   0.234E+01 -.560E+00 -.212E+01
   0.714E+02 0.626E+01 0.180E+02   -.695E+02 -.607E+01 -.201E+02   -.176E+01 -.170E+00 0.186E+01
   -.406E+02 0.248E+00 -.758E+02   0.417E+02 -.243E+00 0.808E+02   -.106E+01 -.325E-02 -.466E+01
   0.414E+02 0.121E+00 0.740E+02   -.426E+02 -.117E+00 -.785E+02   0.119E+01 -.919E-03 0.426E+01
   -.781E+02 0.292E+00 -.925E+01   0.765E+02 -.287E+00 0.121E+02   0.154E+01 -.698E-02 -.255E+01
   0.703E+02 0.151E+00 0.142E+02   -.685E+02 -.147E+00 -.166E+02   -.167E+01 -.309E-02 0.219E+01
   -.349E+02 0.529E+01 -.729E+02   0.362E+02 -.496E+01 0.776E+02   -.122E+01 -.320E+00 -.437E+01
   0.303E+02 0.105E+02 0.688E+02   -.316E+02 -.990E+01 -.738E+02   0.119E+01 -.592E+00 0.473E+01
   -.669E+02 0.527E+01 -.128E+02   0.650E+02 -.498E+01 0.153E+02   0.172E+01 -.272E+00 -.221E+01
[...]
   -.491E+02 0.239E+01 0.517E+02   0.482E+02 -.185E+01 -.459E+02   0.610E+00 -.519E+00 -.493E+01
   0.510E+02 0.314E+01 -.528E+02   -.506E+02 -.314E+01 0.476E+02   -.264E+00 -.782E-01 0.450E+01
   -.110E+03 0.118E+00 0.904E+02   0.121E+03 -.121E+00 -.900E+02   -.947E+01 0.334E-03 -.288E+00
   0.109E+03 0.189E+00 -.908E+02   -.121E+03 -.196E+00 0.904E+02   0.963E+01 0.372E-02 0.330E+00
   -.199E+02 0.140E+01 -.114E+02   0.283E+02 -.125E+01 0.130E+02   -.708E+01 -.252E+00 -.129E+01
   0.157E+02 0.155E+01 0.133E+02   -.237E+02 -.141E+01 -.151E+02   0.674E+01 -.238E+00 0.143E+01
   -.474E+02 -.246E-01 0.526E+02   0.468E+02 0.343E-01 -.472E+02   0.408E+00 -.863E-02 -.464E+01
   0.452E+02 0.175E+00 -.534E+02   -.447E+02 -.177E+00 0.482E+02   -.365E+00 0.196E-03 0.449E+01
   -.107E+03 0.102E+01 0.916E+02   0.118E+03 -.751E+00 -.912E+02   -.971E+01 -.337E+00 -.271E+00
   0.108E+03 0.241E+01 -.902E+02   -.119E+03 -.220E+01 0.898E+02   0.955E+01 -.288E+00 0.278E+00
   -.144E+02 0.536E-02 -.144E+02   0.221E+02 0.123E-01 0.164E+02   -.647E+01 -.187E-01 -.155E+01
   0.208E+02 0.874E-01 0.119E+02   -.291E+02 -.882E-01 -.135E+02   0.696E+01 -.249E-02 0.128E+01
   -.496E+02 0.535E+01 0.535E+02   0.491E+02 -.548E+01 -.484E+02   0.289E+00 0.285E-01 -.439E+01
   0.506E+02 0.430E+01 -.532E+02   -.500E+02 -.451E+01 0.478E+02   -.363E+00 0.960E-01 0.461E+01
   -.143E+02 -.342E-01 -.100E+01   0.362E-12 0.117E-11 0.130E-11   0.124E+02 0.155E-01 0.121E+01

 POSITION                                       TOTAL-FORCE (eV/Angst)
      1.07491      0.00078      4.32397         0.004635     -0.005446     -0.004235
      4.87264      7.57885      5.78808        -0.003757      0.001175      0.001535
      6.99051      7.58129      8.66124         0.006626      0.004788     -0.003534
      1.89014      7.58113      7.13298         0.001524      0.000418     -0.002265
      9.96888      7.58100      7.32684        -0.007066      0.001501     -0.000149
     10.79483      6.06525      4.34053        -0.009642      0.004937      0.003293
      1.05914      6.06668     10.11465         0.004222      0.004629     -0.007451
      9.96883      4.54917      7.32821        -0.002695      0.003420     -0.000034
     10.80780      3.03301      4.33901        -0.002478      0.000813      0.003221
      1.06046      3.03297     10.11675        -0.063685      0.007756     -0.029930
      9.97356      7.58011      1.53608        -0.006440      0.003526      0.000001
      7.82249     12.12974      5.68231         0.002114     -0.004885     -0.002270
      1.89326      7.57747      1.34601        -0.000945     -0.000031     -0.000658
      1.07035      3.03366      4.30722        -0.001892      0.000248     -0.006103
     10.82473      3.03362     -1.45014        -0.001922      0.000006      0.003100
      9.98109      4.55182      1.53116        -0.003159      0.003130     -0.001128
      1.90874      4.54857      1.34492         0.009842     -0.002074     -0.001026
      7.02565      4.55933      2.87079         0.012243      0.010617     -0.007573
      4.86805      4.56157      0.00777        -0.001355      0.000615      0.002243
      7.82254      3.03384     -0.11753         0.007120     -0.000293     -0.003369
      4.87336      7.57990      0.01178        -0.003499      0.002520     -0.000100
      4.04282      6.05682      2.99009        -0.002723      0.001579     -0.009190
      6.99699      7.58167      2.87062         0.005267      0.002705     -0.004860
      4.03862      0.00378      8.77643        -0.002716     -0.005032     -0.000116
      4.86073      1.50702      5.77879         0.004430     -0.008921      0.013654
      6.98822      1.51624      8.65968         0.006973     -0.004963     -0.001720
     10.80183     12.13064     -1.45251        -0.008252     -0.005263      0.001906
      9.98080      1.51487      1.53109        -0.002173     -0.001307     -0.000088
      1.90880      1.51984      1.34490         0.007753      0.001934      0.000615
      7.02505      1.50766      2.87092         0.013319     -0.010081     -0.008113
      4.86833      1.50646      0.00785        -0.001603     -0.001261      0.001633
      4.04247      0.01100      2.99007        -0.002628     -0.002433     -0.007685
      7.82898      0.00148     -0.11449         0.006981     -0.005539     -0.002077
      1.07541      6.06633      4.32395         0.004152      0.004996     -0.000526
      7.82934      6.06583     -0.11471         0.005865      0.004081     -0.002235
      7.81513      3.03330      5.66186         0.005065      0.000600     -0.004035
     10.80190      6.06865     -1.45263        -0.009143      0.006075      0.002296
      4.86035      4.56105      5.77847         0.004075      0.007625      0.016178
      6.98895      4.55115      8.65944         0.005044      0.005400     -0.002298
      1.89559      4.55148      7.12260         0.000327      0.001177     -0.005575
      7.82294      6.06877      5.68210         0.001017      0.005221     -0.001644
      4.03891      6.06345      8.77629        -0.003957      0.006707     -0.001009
      1.05961      0.00020     10.11486         0.004569     -0.006890     -0.006494
     10.79477      0.00106      4.34077        -0.008109     -0.002261      0.003778
      9.96851      1.51756      7.32819        -0.003192     -0.000770      0.001139
      1.89574      1.51543      7.12233         0.000234     -0.001564     -0.005922
      4.03754      3.03372      8.78368        -0.002196      0.000220     -0.004500
      1.05376      9.09959      4.32677         0.001606     -0.000600     -0.003499
     10.80538      9.09973     -1.45029        -0.006036     -0.001812      0.003817
      9.97316     10.61873      1.53619        -0.004193     -0.003690     -0.000267
      1.89326     10.62242      1.34633        -0.001767     -0.001706     -0.000738
      6.99692     10.61728      2.87081         0.006180     -0.002955     -0.006162
      4.87261     10.61982      0.01168        -0.001037     -0.002125      0.001487
      4.04129      9.09978      2.98927         0.000213     -0.000476      0.012624
      7.82651      9.09964     -0.11927         0.004897      0.000079     -0.001917
      1.05231      9.09969     10.12342         0.000103     -0.000809     -0.001540
     10.80496      9.09921      4.34036        -0.004068     -0.000616      0.002013
      9.96860     10.61827      7.32701        -0.005509     -0.002738     -0.001081
      1.89022     10.61768      7.13297        -0.000238     -0.002014     -0.001410
      6.99065     10.61808      8.66143         0.006937     -0.004318     -0.003804
[...]
      5.97733      9.09956      2.84338        -0.014179      0.000033     -0.000715
      3.88911     10.60056      1.58405        -0.004081     -0.000014     -0.000137
      7.98301     10.61755      1.29079         0.000254      0.001904      0.000995
      1.93342      9.09945      5.93109         0.000384     -0.001415      0.004027
      9.91791      9.09987      8.52890        -0.004556     -0.000030     -0.004942
     11.82321     10.62133      4.36959         0.011011      0.006913      0.000521
      0.02897     10.62013     10.08589        -0.007684      0.006097     -0.001601
      9.81427      9.09921      5.91633        -0.002453     -0.000009     -0.001434
      2.04466      9.09964      8.54443         0.000979      0.000015      0.001453
      7.88425     10.62039      4.46982         0.002573      0.003546      0.002550
      3.98865     10.62375      9.98658        -0.005547      0.002961     -0.004608
      5.89995      9.10038      5.82519         0.004612     -0.000568     -0.000937
      5.96606      9.09988      8.63738        -0.013620     -0.000888      0.001878
      3.88581     10.61935      7.37180        -0.001952      0.001616      0.000637
      7.97882     10.61772      7.08580        -0.000404      0.003019      0.000029
    total drift:                                0.077476      0.013399     -0.284501

  FREE ENERGIE OF THE ION-ELECTRON SYSTEM (eV)
  free  energy   TOTEN  =     -1515.40007693 eV

  energy  without entropy=    -1515.40007693  energy(sigma->0) =    -1515.40007693

 d Force = 0.1185194E-02[-0.122E-03, 0.249E-02]  d Energy = 0.1214704E-02-0.295E-04
 d Force = 0.4277502E-01[ 0.230E-01, 0.626E-01]  d Ewald  = 0.4277887E-01-0.385E-05

 reached required accuracy - stopping structural energy minimisation
 writing wavefunctions

 total charge

[...]

 magnetization (x)

# of ion       s       p       d       tot
    1       -0.000   0.000   0.000  -0.000
    2       -0.000  -0.000  -0.000  -0.000
    3        0.000  -0.000   0.000  -0.000
    4        0.000   0.000   0.000   0.000
    5        0.000   0.000   0.000   0.000
    6       -0.000   0.000  -0.000  -0.000
    7        0.000   0.000   0.000   0.000
    8       -0.000  -0.000   0.000  -0.000
    9        0.000   0.000  -0.000   0.000
   10       -0.000  -0.000   0.000  -0.000
   11       -0.000  -0.000   0.000   0.000
   12        0.000   0.000   0.000   0.000
   13       -0.000  -0.000  -0.000  -0.000
   14        0.000   0.001   0.001   0.001
   15       -0.000  -0.000   0.000  -0.000
   16        0.000   0.000   0.000   0.000
   17        0.000   0.000  -0.000   0.000
   18        0.002   0.002   0.001   0.005
   19        0.000   0.001   0.000   0.002
   20       -0.000  -0.000  -0.000  -0.000
   21       -0.000  -0.000  -0.000  -0.000
   22       -0.001  -0.000  -0.000  -0.002
   23       -0.000  -0.000  -0.000  -0.000
   24        0.000  -0.000   0.000  -0.000
   25        0.000   0.001   0.001   0.002
   26        0.000   0.000   0.000   0.000
   27        0.000   0.000   0.000   0.000
   28        0.000   0.000   0.000   0.000
   29        0.000   0.000  -0.000   0.000
   30        0.002   0.002   0.001   0.005
   31        0.000   0.001   0.000   0.002
   32       -0.001  -0.000  -0.000  -0.002
   33        0.000   0.000   0.000   0.000
   34       -0.000   0.000   0.000  -0.000
   35        0.000   0.000   0.000   0.000
   36       -0.000  -0.000  -0.000  -0.000
   37        0.000   0.000   0.000   0.000
   38        0.000   0.001   0.001   0.002
   39        0.000   0.000   0.000   0.000
   40       -0.000  -0.000  -0.000  -0.000
   41        0.000   0.000   0.000   0.000
   42       -0.000  -0.000   0.000  -0.000
   43        0.000   0.000   0.000   0.000
   44       -0.000  -0.000  -0.000  -0.000
   45       -0.000  -0.000   0.000  -0.000
   46       -0.000  -0.000  -0.000  -0.000
   47       -0.000   0.000   0.000   0.000
   48       -0.000   0.000   0.000  -0.000
   49       -0.000  -0.000   0.000  -0.000
   50       -0.000  -0.000   0.000   0.000
   51       -0.000  -0.000  -0.000  -0.000
   52       -0.000  -0.000  -0.000  -0.000
   53       -0.000  -0.000  -0.000  -0.000
   54        0.000   0.000   0.000   0.000
   55       -0.000  -0.000   0.000  -0.000
   56        0.000  -0.000  -0.000   0.000
   57        0.000   0.000   0.000   0.000
   58        0.000   0.000   0.000   0.000
   59        0.000   0.000   0.000   0.000
   60       -0.000  -0.000  -0.000  -0.000
[...]
  146        0.000   0.000   0.000   0.000
  147        0.000   0.000   0.000   0.000
  148       -0.000   0.000   0.000   0.000
  149        0.000   0.000   0.000   0.000
  150        0.000   0.000   0.000   0.000
  151        0.000   0.000   0.000   0.000
  152        0.000   0.000   0.000   0.000
  153        0.000   0.000   0.000   0.000
  154        0.000   0.000   0.000   0.000
  155        0.000   0.000   0.000   0.000
  156        0.000   0.000   0.000   0.000
  157        0.000   0.000   0.000   0.000
  158        0.000   0.000   0.000   0.000
  159        0.000   0.000   0.000   0.000
  160        0.000   0.000   0.000   0.000
tot          0.051   0.185   3.647   3.883