 vasp.5.4.4.18Apr17-6-g9f103f2a35 (build Jun 06 2017 17:32:29) complex

 executed on      LLNL_Quartz_ifc date 2020.03.09  21:16:58

 INCAR:
 POTCAR:   PAW_PBE Ga_d 06Sep2000
 POTCAR:   PAW_PBE Fe_pv 06Sep2000
 POTCAR:   PAW_PBE O 08Apr2002

 POTCAR:   PAW_PBE Ga_d 06Sep2000
   VRHFIN =Ga: s2p1

   TITEL  = PAW_PBE Ga_d 06Sep2000
   POMASS =   69.723; ZVAL   =   13.000    mass and valenz
   ENMAX  =  282.697; ENMIN  =  212.022 eV
   QCUT   =   -4.558; QGAM   =    9.117    optimization parameters

   Description
     l     E      TYP  RCUT    TYP  RCUT
     2   .000     23  2.300
     2  -.400     23  2.300
     0   .000     23  2.300
     0   .000     23  2.300
     1   .000     23  2.300
     1   .000     23  2.300
     3  -.100      7  2.300

 POTCAR:   PAW_PBE Fe_pv 06Sep2000
   VRHFIN =Fe:  3pd7s1

   TITEL  = PAW_PBE Fe_pv 06Sep2000
   POMASS =   55.847; ZVAL   =   14.000    mass and valenz
   ENMAX  =  293.238; ENMIN  =  219.929 eV
   QCUT   =   -4.642; QGAM   =    9.285    optimization parameters

[...]

 POTCAR:   PAW_PBE O 08Apr2002
   VRHFIN =O: s2p4

   TITEL  = PAW_PBE O 08Apr2002
   POMASS =   16.000; ZVAL   =    6.000    mass and valenz
   ENMAX  =  400.000; ENMIN  =  300.000 eV
   QCUT   =   -5.520; QGAM   =   11.041    optimization parameters

   Description
     l     E      TYP  RCUT    TYP  RCUT
     0   .000     23  1.200
     0  -.700     23  1.200
     1   .000     23  1.520
     1   .600     23  1.520
     2   .000      7  1.500

 Optimization of the real space projectors (new method)

 maximal supplied QI-value         = 16.25
 optimisation between [QCUT,QGAM] = [ 10.24, 20.48] = [ 29.35,117.42] Ry
 Optimized for a Real-space Cutoff    1.38 Angstroem

   l    n(q)    QCUT    max X(q) W(low)/X(q) W(high)/X(q)  e(spline)
   2      7    10.239     6.328    0.33E-04    0.68E-04    0.30E-07
   2      7    10.239     9.625    0.20E-03    0.23E-03    0.80E-07
   0      8    10.239     9.711    0.17E-04    0.17E-04    0.13E-07
   0      8    10.239    32.764    0.56E-04    0.14E-03    0.62E-07
   1      8    10.239     7.413    0.78E-04    0.28E-04    0.38E-07
   1      8    10.239    31.472    0.43E-03    0.30E-03    0.73E-07
 Optimization of the real space projectors (new method)

[...]

   l    n(q)    QCUT    max X(q) W(low)/X(q) W(high)/X(q)  e(spline)
   1      9    10.205     4.550    0.11E-04    0.61E-05    0.27E-07
   1      9    10.205     5.234    0.14E-04    0.12E-03    0.13E-06
   2      8    10.205     3.960    0.41E-04    0.45E-04    0.45E-07
   2      8    10.205    29.565    0.45E-03    0.40E-03    0.42E-06
   0      9    10.205    23.582    0.19E-04    0.16E-05    0.90E-08
   0      9    10.205    39.747    0.62E-04    0.50E-04    0.87E-07
 Optimization of the real space projectors (new method)

 maximal supplied QI-value         = 24.76
 optimisation between [QCUT,QGAM] = [ 10.15, 20.30] = [ 28.85,115.39] Ry
 Optimized for a Real-space Cutoff    1.30 Angstroem

   l    n(q)    QCUT    max X(q) W(low)/X(q) W(high)/X(q)  e(spline)
   0      8    10.150     4.192    0.55E-04    0.58E-04    0.78E-07
   0      8    10.150     8.473    0.46E-03    0.68E-03    0.23E-06
   1      7    10.150     2.474    0.11E-03    0.93E-04    0.33E-07
   1      7    10.150     3.912    0.46E-03    0.50E-03    0.15E-06
 PAW_PBE Ga_d 06Sep2000                 :
 PAW_PBE Fe_pv 06Sep2000                :
 PAW_PBE O 08Apr2002                    :

 POSCAR: Ga Fe  O
  positions in direct lattice
  velocities in cartesian coordinates
 exchange correlation table for  LEXCH =        8
   RHO(1)=    0.500       N(1)  =     2000
   RHO(2)=  100.500       N(2)  =     4000

 ion  position               nearest neighbor table
   1  0.090  1.000  0.396-  99 1.82 108 1.83 140 1.83 106 1.86
   2  0.411  0.625  0.604-  85 1.83  72 1.83 157 1.83 121 1.86
   3  0.589  0.625  0.896-  86 1.83  71 1.83 158 1.83 136 1.86
   4  0.160  0.625  0.656-  78 1.93  80 1.94 149 1.94 121 2.01  75 2.07 154 2.08
   5  0.841  0.625  0.844-  77 1.93  79 1.94 150 1.94 136 2.01  76 2.07 153 2.08
   6  0.910  0.500  0.604-  90 1.83 118 1.83  78 1.83  76 1.86
   7  0.090  0.500  0.896-  68 1.82 117 1.83  77 1.83  75 1.86
   8  0.841  0.375  0.844- 117 1.93  79 1.94 119 1.94  65 2.01  76 2.07 116 2.08
   9  0.911  0.250  0.604- 131 1.83  97 1.83 118 1.83 116 1.86
  10  0.089  0.250  0.896- 132 1.83 117 1.83  96 1.83  93 1.86
  11  0.840  0.625  0.344-  89 1.93  90 1.94 138 1.94  81 2.01  88 2.07 141 2.08
  12  0.660  1.000  0.656- 114 1.93 102 1.93 155 1.93  95 2.01 160 2.07 133 2.07
  13  0.160  0.625  0.156-  70 1.93  68 1.93 137 1.94  82 2.01  87 2.07 142 2.08
  14  0.088  0.250  0.396- 120 1.83 129 1.83 108 1.83 127 1.86
  15  0.911  0.250  0.104- 119 1.83 130 1.83 109 1.83 128 1.86
  16  0.841  0.375  0.344- 129 1.93  90 1.94 131 1.94  92 2.01  88 2.07 128 2.08
  17  0.160  0.375  0.156- 130 1.93  68 1.94 132 1.94 122 2.00 127 2.07  87 2.08
  18  0.591  0.376  0.397- 135 1.82 123 1.83  83 1.83  92 1.86
  19  0.411  0.376  0.104-  91 1.83  69 1.83 124 1.83 122 1.86
  20  0.660  0.250  0.155- 124 1.94 126 1.94 105 1.94 128 2.01  92 2.08 100 2.08
  21  0.411  0.625  0.104-  73 1.83  69 1.83 145 1.83  82 1.86
  22  0.341  0.501  0.343-  83 1.93  85 1.93 125 1.94  87 2.01  82 2.06 122 2.06
  23  0.589  0.625  0.396-  74 1.83  83 1.83 146 1.83  81 1.86
  24  0.341  0.000  0.844- 115 1.93 156 1.93 113 1.93  94 2.01 134 2.07 159 2.07
  25  0.411  0.124  0.605- 114 1.83 104 1.83  84 1.83 134 1.86
  26  0.589  0.125  0.896- 105 1.83 115 1.83  67 1.83 133 1.86
  27  0.910  1.000  0.104-  98 1.82 109 1.83 139 1.83 107 1.86
  28  0.841  0.125  0.344- 108 1.93 110 1.94 131 1.94 100 2.01 107 2.07 128 2.08
  29  0.159  0.125  0.155- 109 1.93 111 1.94 132 1.94 101 2.01 127 2.07 106 2.08
  30  0.591  0.124  0.397- 102 1.82 123 1.83 103 1.83 100 1.86
  31  0.411  0.125  0.104- 113 1.83 112 1.83 124 1.83 101 1.86
  32  0.341  0.999  0.343- 144 1.93 103 1.93 104 1.94 106 2.01 147 2.06 101 2.06
  33  0.660  0.000  0.156- 112 1.93 143 1.93 105 1.93 107 2.01 100 2.07 148 2.07
  34  0.090  0.500  0.396-  80 1.82 129 1.83  89 1.83  87 1.86
  35  0.660  0.500  0.156-  69 1.93  86 1.93 126 1.93  88 2.01  92 2.07  81 2.07
  36  0.660  0.250  0.656-  84 1.94 102 1.94 135 1.94 116 2.01 133 2.08  65 2.08
  37  0.910  0.500  0.104-  79 1.82 130 1.83  70 1.83  88 1.86
  38  0.411  0.376  0.605-  72 1.83 125 1.83  84 1.83  66 1.86
  39  0.589  0.375  0.896- 126 1.83  71 1.83  67 1.83  65 1.86
  40  0.160  0.375  0.656- 118 1.93  80 1.94 120 1.94  66 2.01  75 2.07  93 2.08
  41  0.660  0.500  0.656-  72 1.93 135 1.93  74 1.93  76 2.01 136 2.07  65 2.07
  42  0.341  0.500  0.844-  71 1.93  91 1.93  73 1.93  75 2.01  66 2.07 121 2.07
  43  0.090  1.000  0.896- 111 1.83  96 1.83 152 1.83  94 1.86
  44  0.910  0.000  0.604- 110 1.83  97 1.83 151 1.83  95 1.86
  45  0.841  0.125  0.844-  96 1.93  98 1.94 119 1.94 133 2.01  95 2.07 116 2.08
  46  0.160  0.125  0.656-  97 1.93  99 1.94 120 1.94 134 2.01  94 2.07  93 2.08
  47  0.340  0.250  0.845-  67 1.93 113 1.94  91 1.94  93 2.01  66 2.08 134 2.08
  48  0.089  0.750  0.396- 149 1.83  89 1.83 140 1.83 142 1.86
  49  0.911  0.750  0.104- 150 1.83 139 1.83  70 1.83 141 1.86
  50  0.840  0.875  0.344- 140 1.93 110 1.94 138 1.94 148 2.01 107 2.07 141 2.08
  51  0.159  0.875  0.156- 139 1.93 111 1.93 137 1.94 147 2.01 106 2.07 142 2.08
  52  0.589  0.875  0.396- 155 1.83 103 1.83 146 1.83 148 1.86
  53  0.411  0.875  0.104- 156 1.83 112 1.83 145 1.83 147 1.86
  54  0.340  0.750  0.345- 146 1.93  85 1.94 144 1.94 142 2.01 147 2.08  82 2.08
  55  0.660  0.750  0.155- 145 1.93  86 1.94 143 1.94 141 2.01 148 2.08  81 2.08
  56  0.089  0.750  0.896- 137 1.83  77 1.83 152 1.83 154 1.86
  57  0.911  0.750  0.604- 138 1.83 151 1.83  78 1.83 153 1.86
  58  0.841  0.875  0.844- 152 1.93  98 1.94 150 1.94 160 2.01  95 2.07 153 2.08
  59  0.160  0.875  0.656- 151 1.93  99 1.94 149 1.94 159 2.01  94 2.07 154 2.08
  60  0.589  0.875  0.896- 143 1.83 115 1.83 158 1.83 160 1.86
[...]
 146  0.503  0.750  0.372-  52 1.83  23 1.83  54 1.93
 147  0.328  0.875  0.219-  53 1.86  51 2.01  32 2.06  54 2.08
 148  0.673  0.876  0.281-  52 1.86  50 2.01  33 2.07  55 2.08
 149  0.164  0.750  0.553-  48 1.83  59 1.94   4 1.94
 150  0.836  0.750  0.947-  49 1.83  58 1.94   5 1.94
 151  0.997  0.876  0.628-  44 1.83  57 1.83  59 1.93
 152  0.003  0.876  0.872-  43 1.83  56 1.83  58 1.93
 153  0.828  0.750  0.719-  57 1.86  63 2.01   5 2.08  58 2.08
 154  0.173  0.750  0.781-  56 1.86  62 2.01  59 2.08   4 2.08
 155  0.664  0.876  0.553-  52 1.83  12 1.93  63 1.94
 156  0.336  0.876  0.947-  53 1.83  24 1.93  62 1.94
 157  0.497  0.750  0.628-  61 1.83   2 1.83  63 1.93
 158  0.503  0.750  0.872-  60 1.83   3 1.83  62 1.93
 159  0.328  0.876  0.719-  61 1.86  59 2.01  24 2.07  62 2.08
 160  0.673  0.875  0.781-  60 1.86  58 2.01  12 2.07  63 2.08

  LATTYP: Found a simple monoclinic cell.
 ALAT       =    14.6889751464
 B/A-ratio  =     0.8259161174
 C/A-ratio  =     1.5972413798
 COS(beta)  =    -0.9171837574

  Lattice vectors:

 A1 = ( -11.8609006218,   0.0000000000,  -8.6651617002)
 A2 = (   0.0000000000, -12.1318613217,   0.0000000000)
 A3 = (  11.8609006218,   0.0000000000,  20.2429474736)

Analysis of symmetry for initial positions (statically):
 Subroutine PRICEL returns:
 Original cell was already a primitive cell.

 Routine SETGRP: Setting up the symmetry group for a
 simple monoclinic supercell.

 Subroutine GETGRP returns: Found  1 space group operations
 (whereof  1 operations were pure point group operations)
 out of a pool of  4 trial point group operations.

The static configuration has the point symmetry C_1 .

Analysis of symmetry for dynamics (positions and initial velocities):
 Subroutine PRICEL returns:
 Original cell was already a primitive cell.

[...]

The dynamic configuration has the point symmetry C_1 .

Analysis of structural, dynamic, and magnetic symmetry:
 Subroutine PRICEL returns:
 Original cell was already a primitive cell.

 Routine SETGRP: Setting up the symmetry group for a
 simple monoclinic supercell.

 Subroutine GETGRP returns: Found  1 space group operations
 (whereof  1 operations were pure point group operations)
 out of a pool of  4 trial point group operations.

The magnetic configuration has the point symmetry C_1 .

 Subroutine INISYM returns: Found  1 space group operations
 (whereof  1 operations are pure point group operations),
 and found     1 'primitive' translations

 KPOINTS: KPOINTS created by Atomic Simulation Env
  k-points in reciprocal lattice
Space group operators:
 irot       det(A)        alpha          n_x          n_y          n_z        tau_x        tau_y        tau_z
    1     1.000000     0.000000     1.000000     0.000000     0.000000     0.000000     0.000000     0.000000

 Subroutine IBZKPT_HF returns following result:

 Found      2 k-points in 1st BZ
 the following      2 k-points will be used (e.g. in the exchange kernel)
 Following reciprocal coordinates:   # in IRBZ
  0.250000  0.250000  0.250000    0.50000000   1 t-inv F
 -0.250000 -0.250000 -0.250000    0.50000000   1 t-inv T

 SYSTEM =  unknown system
 POSCAR =  Ga Fe  O

 Startparameter for this run:
[...]
   -.713E+02 -.969E-01 -.110E+02   0.697E+02 0.101E+00 0.135E+02   0.155E+01 -.384E-02 -.228E+01
   -.371E+02 -.722E+01 -.731E+02   0.383E+02 0.702E+01 0.778E+02   -.116E+01 0.198E+00 -.443E+01
   0.375E+02 -.244E+00 0.715E+02   -.388E+02 0.225E+00 -.762E+02   0.118E+01 0.218E-01 0.444E+01
   0.365E+02 -.799E+01 0.732E+02   -.379E+02 0.772E+01 -.780E+02   0.127E+01 0.270E+00 0.450E+01
   -.702E+02 -.255E+00 -.181E+02   0.684E+02 0.258E+00 0.202E+02   0.159E+01 -.281E-02 -.189E+01
   0.740E+02 -.531E-01 0.130E+02   -.723E+02 0.618E-01 -.155E+02   -.157E+01 -.489E-02 0.227E+01
   -.372E+02 0.632E+01 -.720E+02   0.385E+02 -.608E+01 0.766E+02   -.122E+01 -.232E+00 -.437E+01
   0.374E+02 0.462E+01 0.759E+02   -.386E+02 -.448E+01 -.806E+02   0.113E+01 -.140E+00 0.435E+01
   -.716E+02 0.159E+01 -.139E+02   0.696E+02 -.184E+01 0.163E+02   0.178E+01 0.208E+00 -.221E+01
   0.687E+02 0.997E+01 0.162E+02   -.670E+02 -.958E+01 -.185E+02   -.154E+01 -.362E+00 0.205E+01
   0.380E+02 0.299E+00 0.740E+02   -.391E+02 -.272E+00 -.789E+02   0.106E+01 -.372E-01 0.457E+01
   0.725E+02 -.718E+01 0.147E+02   -.706E+02 0.697E+01 -.172E+02   -.180E+01 0.212E+00 0.221E+01
   -.405E+02 -.989E+00 -.740E+02   0.417E+02 0.128E+01 0.784E+02   -.111E+01 -.276E+00 -.418E+01
   -.722E+02 -.727E+01 -.133E+02   0.703E+02 0.703E+01 0.158E+02   0.174E+01 0.221E+00 -.219E+01
   -.366E+02 0.792E+00 -.735E+02   0.379E+02 -.765E+00 0.782E+02   -.118E+01 -.225E-01 -.444E+01
   0.677E+02 -.943E+01 0.106E+02   -.660E+02 0.885E+01 -.129E+02   -.157E+01 0.535E+00 0.207E+01
   -.727E+02 -.735E+01 -.142E+02   0.708E+02 0.713E+01 0.166E+02   0.173E+01 0.207E+00 -.220E+01
   0.754E+02 0.633E+00 0.142E+02   -.732E+02 -.530E+00 -.167E+02   -.205E+01 -.871E-01 0.221E+01
   -.374E+02 -.689E+01 -.718E+02   0.387E+02 0.663E+01 0.765E+02   -.122E+01 0.246E+00 -.436E+01
   0.371E+02 -.522E+01 0.760E+02   -.383E+02 0.506E+01 -.806E+02   0.117E+01 0.148E+00 0.436E+01
   -.718E+02 -.240E+01 -.139E+02   0.698E+02 0.264E+01 0.164E+02   0.180E+01 -.202E+00 -.220E+01
   0.686E+02 -.109E+02 0.162E+02   -.670E+02 0.105E+02 -.185E+02   -.153E+01 0.406E+00 0.206E+01
   -.408E+02 0.101E+00 -.734E+02   0.420E+02 -.420E+00 0.779E+02   -.109E+01 0.321E+00 -.421E+01
   0.377E+02 -.527E-01 0.747E+02   -.391E+02 0.546E-01 -.794E+02   0.122E+01 -.463E-02 0.439E+01
   -.742E+02 -.112E+01 -.148E+02   0.721E+02 0.117E+01 0.172E+02   0.200E+01 -.422E-01 -.217E+01
   0.375E+02 0.392E-02 0.747E+02   -.388E+02 0.194E-01 -.794E+02   0.124E+01 -.332E-01 0.439E+01
   0.385E+02 -.299E+00 0.717E+02   -.395E+02 0.301E+00 -.764E+02   0.885E+00 0.266E-02 0.438E+01
   0.754E+02 -.729E+00 0.141E+02   -.732E+02 0.647E+00 -.166E+02   -.205E+01 0.762E-01 0.222E+01
   0.681E+02 0.844E+01 0.107E+02   -.664E+02 -.787E+01 -.130E+02   -.159E+01 -.525E+00 0.207E+01
   -.728E+02 0.698E+01 -.141E+02   0.709E+02 -.675E+01 0.165E+02   0.175E+01 -.220E+00 -.219E+01
   0.359E+02 0.693E+01 0.719E+02   -.372E+02 -.667E+01 -.766E+02   0.123E+01 -.253E+00 0.443E+01
   0.375E+02 -.953E-01 0.718E+02   -.388E+02 0.867E-01 -.765E+02   0.119E+01 0.524E-02 0.443E+01
   -.365E+02 -.945E+00 -.731E+02   0.377E+02 0.920E+00 0.779E+02   -.119E+01 0.215E-01 -.445E+01
   -.744E+02 -.142E+00 -.122E+02   0.723E+02 0.130E+00 0.147E+02   0.196E+01 0.110E-01 -.226E+01
   0.730E+02 0.509E+00 0.133E+02   -.708E+02 -.514E+00 -.158E+02   -.201E+01 0.835E-02 0.219E+01
   -.358E+02 -.657E+01 -.732E+02   0.371E+02 0.638E+01 0.779E+02   -.122E+01 0.179E+00 -.445E+01
   0.359E+02 -.759E+01 0.717E+02   -.372E+02 0.731E+01 -.765E+02   0.125E+01 0.270E+00 0.443E+01
   -.357E+02 -.129E+00 -.741E+02   0.368E+02 0.144E+00 0.789E+02   -.107E+01 -.112E-01 -.450E+01
   -.710E+02 0.702E+00 -.130E+02   0.693E+02 -.683E+00 0.155E+02   0.162E+01 -.160E-01 -.225E+01
   0.717E+02 0.564E+00 0.124E+02   -.699E+02 -.552E+00 -.149E+02   -.164E+01 -.121E-01 0.226E+01
   -.372E+02 0.734E+01 -.731E+02   0.384E+02 -.714E+01 0.778E+02   -.117E+01 -.195E+00 -.444E+01
   0.367E+02 0.812E+01 0.737E+02   -.381E+02 -.787E+01 -.784E+02   0.131E+01 -.243E+00 0.448E+01
   -.726E+02 0.756E+01 -.134E+02   0.707E+02 -.737E+01 0.158E+02   0.178E+01 -.181E+00 -.220E+01
   0.729E+02 0.718E+01 0.150E+02   -.709E+02 -.700E+01 -.175E+02   -.185E+01 -.169E+00 0.224E+01
   -.355E+02 0.143E+01 -.726E+02   0.366E+02 -.144E+01 0.775E+02   -.110E+01 -.186E-01 -.458E+01
   0.363E+02 0.767E+00 0.732E+02   -.374E+02 -.748E+00 -.780E+02   0.108E+01 -.274E-01 0.446E+01
   -.721E+02 0.404E+00 -.115E+02   0.703E+02 -.399E+00 0.140E+02   0.163E+01 -.439E-02 -.225E+01
   0.705E+02 0.330E+00 0.119E+02   -.687E+02 -.325E+00 -.144E+02   -.160E+01 -.680E-02 0.225E+01
   -.369E+02 0.698E+01 -.727E+02   0.381E+02 -.674E+01 0.774E+02   -.118E+01 -.225E+00 -.445E+01
   0.366E+02 0.770E+01 0.717E+02   -.378E+02 -.744E+01 -.765E+02   0.119E+01 -.255E+00 0.445E+01
   -.721E+02 0.680E+01 -.134E+02   0.702E+02 -.659E+01 0.158E+02   0.179E+01 -.196E+00 -.219E+01
[...]
   -.475E+02 0.670E+01 0.555E+02   0.467E+02 -.698E+01 -.504E+02   0.518E+00 0.149E+00 -.439E+01
   0.485E+02 0.455E+01 -.525E+02   -.480E+02 -.461E+01 0.472E+02   -.394E+00 -.384E-01 0.459E+01
   -.109E+03 0.154E+00 0.910E+02   0.120E+03 -.138E+00 -.906E+02   -.970E+01 -.200E-01 -.326E+00
   0.109E+03 0.211E+00 -.915E+02   -.120E+03 -.213E+00 0.910E+02   0.969E+01 -.498E-03 0.329E+00
   -.186E+02 0.210E+01 -.110E+02   0.268E+02 -.203E+01 0.126E+02   -.695E+01 -.186E+00 -.124E+01
   0.180E+02 0.213E+01 0.113E+02   -.262E+02 -.207E+01 -.129E+02   0.692E+01 -.175E+00 0.126E+01
   -.484E+02 0.671E-01 0.529E+02   0.479E+02 -.638E-01 -.475E+02   0.377E+00 -.475E-03 -.459E+01
   0.480E+02 0.336E+00 -.528E+02   -.474E+02 -.346E+00 0.474E+02   -.373E+00 0.718E-02 0.458E+01
   -.108E+03 0.323E+01 0.916E+02   0.120E+03 -.316E+01 -.912E+02   -.970E+01 -.174E+00 -.348E+00
   0.109E+03 0.337E+01 -.914E+02   -.120E+03 -.335E+01 0.909E+02   0.974E+01 -.123E+00 0.340E+00
   -.184E+02 0.167E+00 -.119E+02   0.267E+02 -.150E+00 0.136E+02   -.691E+01 -.221E-01 -.129E+01
   0.184E+02 0.161E+00 0.113E+02   -.266E+02 -.146E+00 -.128E+02   0.690E+01 -.202E-01 0.127E+01
   -.480E+02 0.495E+01 0.525E+02   0.474E+02 -.510E+01 -.472E+02   0.434E+00 0.377E-01 -.459E+01
   0.485E+02 0.541E+01 -.536E+02   -.479E+02 -.563E+01 0.483E+02   -.416E+00 0.104E+00 0.456E+01
   -.206E+01 -.126E+00 -.351E+01   0.263E-12 -.989E-12 -.831E-12   0.181E+01 0.933E-01 0.315E+01

 POSITION                                       TOTAL-FORCE (eV/Angst)
      1.06740     12.13081      4.32537         0.008328      0.002834      0.006961
      4.87295      7.58326      5.79381         0.001015     -0.001586      0.012505
      6.98998      7.58306      8.65850         0.001486     -0.000569     -0.012498
      1.89405      7.58160      7.12675         0.002869     -0.003351      0.006516
      9.96955      7.58181      7.32642        -0.003702     -0.001287     -0.001855
     10.79707      6.06664      4.33870        -0.004889     -0.003157      0.011630
      1.06477      6.06732     10.11259         0.003178     -0.003485     -0.007718
      9.97035      4.55277      7.32589        -0.006151     -0.000530     -0.001298
     10.80927      3.03352      4.33720        -0.000211      0.000461      0.012724
      1.05322      3.03336     10.11399        -0.003350      0.000293     -0.007957
      9.96896      7.58121      1.53739         0.000035      0.002502      0.005439
      7.82604     12.12995      5.67783         0.006115      0.001288      0.003970
      1.89287      7.58144      1.33731        -0.000359     -0.000190     -0.001448
      1.04526      3.03375      4.32494         0.001762      0.001966      0.008747
     10.81141      3.03398     -1.45226         0.000044      0.000694     -0.008712
      9.97170      4.55366      1.53437        -0.003400      0.002261      0.005018
      1.89169      4.55328      1.33596        -0.006384      0.002715     -0.005465
      7.00949      4.55897      2.86897         0.005201     -0.000731      0.005434
      4.87255      4.55585      0.00500        -0.002947      0.002575     -0.007464
      7.82556      3.03683     -0.12380         0.004801     -0.005627     -0.006416
      4.87444      7.58296      0.00544        -0.005585      0.001880     -0.002148
      4.04083      6.07660      2.98228         0.002283     -0.002179      0.009984
      6.99016      7.58354      2.86963         0.007394     -0.000461      0.003429
      4.03894     -0.00013      8.77911        -0.003112      0.004896      0.000034
      4.87811      1.51003      5.80770        -0.002359      0.003190      0.002506
      6.99027      1.51722      8.65860         0.002551      0.002703     -0.011475
     10.79515     12.13061     -1.45081        -0.004223      0.006308     -0.004214
      9.97153      1.51451      1.53400        -0.002423     -0.001273      0.006982
      1.88979      1.51429      1.33609         0.001832     -0.001510     -0.003056
      7.01041      1.50964      2.86895         0.000455      0.004402      0.007548
      4.87289      1.51381      0.00479        -0.001898      0.002581     -0.005042
      4.04052     12.12463      2.98214         0.003223      0.010837      0.011969
      7.82480      0.00222     -0.11522         0.001690      0.001243     -0.003094
      1.06766      6.06844      4.32479         0.010154      0.000559      0.005258
      7.82500      6.07049     -0.11515        -0.000602     -0.006616     -0.004312
      7.82750      3.03367      5.66695         0.001916      0.002246      0.001277
     10.79646      6.06830     -1.45060        -0.007493     -0.002067     -0.007776
      4.87722      4.55844      5.80640         0.000100     -0.002416      0.009830
      6.99087      4.55320      8.65833         0.003391     -0.001396     -0.012130
      1.89340      4.55264      7.12599         0.001860     -0.001130      0.003553
      7.82630      6.06911      5.67758         0.001290     -0.000234      0.003770
      4.03905      6.06785      8.77921        -0.001785     -0.001007     -0.001306
      1.06453     12.13133     10.11314         0.001168      0.005077     -0.010234
     10.79611      0.00024      4.33863        -0.002909      0.004562      0.012652
      9.96992      1.51512      7.32617        -0.004601      0.000894     -0.001297
      1.89287      1.51492      7.12609         0.002212      0.003406      0.003942
      4.03614      3.03390      8.78985        -0.004105      0.002541      0.002616
      1.05309      9.09978      4.32632         0.003799      0.001268      0.006158
     10.80841      9.09955     -1.45019        -0.004390     -0.000143     -0.006223
      9.96888     10.61828      1.53764        -0.001422      0.002016      0.003242
      1.89179     10.61839      1.33808         0.000474      0.000139     -0.001584
      6.99077     10.61847      2.86982         0.012592     -0.001803      0.001619
      4.87346     10.61901      0.00570        -0.006316      0.000398     -0.002063
      4.03716      9.10246      2.99757        -0.001608     -0.010156      0.007136
      7.82571      9.10269     -0.12180         0.004377     -0.005717     -0.007103
      1.05402      9.09931     10.11549        -0.003474      0.000831     -0.008328
     10.80859      9.09920      4.33813         0.003759      0.000065      0.010077
      9.96967     10.61742      7.32620        -0.004472      0.003057     -0.002560
      1.89297     10.61823      7.12799         0.004189      0.001027      0.003440
      6.99121     10.61944      8.65842         0.001646      0.000357     -0.012884
[...]
      5.96497      9.10167      2.84535        -0.009060      0.000101     -0.000902
      3.88757     10.61993      1.58332        -0.005242     -0.007424      0.004075
      7.97651     10.62244      1.29208         0.004714     -0.006736     -0.007284
      1.94422      9.10051      5.92377        -0.010699     -0.002441      0.003271
      9.91906      9.09992      8.52958         0.010177      0.000886      0.001683
     11.82799     10.62292      4.36302         0.009676      0.001909      0.000242
      0.03321     10.62196     10.08964        -0.005733      0.002041      0.000000
      9.81617      9.09878      5.91465         0.005371      0.002617     -0.005038
      2.04650      9.09982      8.53863        -0.000742      0.001290      0.005725
      7.87793     10.62330      4.46723         0.007541      0.002146     -0.007814
      3.98530     10.62392      9.98676        -0.002318      0.002991      0.005648
      5.89826      9.10150      5.81856         0.010928     -0.001709     -0.000586
      5.96514      9.10199      8.63524        -0.012515     -0.000603      0.001908
      3.88674     10.62162      7.37294        -0.001400      0.000209      0.000044
      7.97740     10.62077      7.08109        -0.000606     -0.002258      0.001175
    total drift:                               -0.158165     -0.030655     -0.165168

  FREE ENERGIE OF THE ION-ELECTRON SYSTEM (eV)
  free  energy   TOTEN  =     -1520.16011660 eV

  energy  without entropy=    -1520.16011660  energy(sigma->0) =    -1520.16011660

 d Force = 0.4140468E-03[-0.314E-04, 0.859E-03]  d Energy = 0.4039202E-03 0.101E-04
 d Force =-0.1769868E-02[-0.958E-02, 0.604E-02]  d Ewald  =-0.1768982E-02-0.886E-06

 reached required accuracy - stopping structural energy minimisation
 writing wavefunctions

 total charge

[...]

 magnetization (x)

# of ion       s       p       d       tot
    1       -0.000  -0.000  -0.000  -0.000
    2       -0.000  -0.000  -0.000  -0.000
    3       -0.000  -0.000   0.000  -0.000
    4        0.000   0.000   0.000   0.000
    5        0.000   0.000   0.000   0.000
    6       -0.000  -0.000  -0.000  -0.000
    7        0.000   0.000   0.000   0.000
    8       -0.000  -0.000  -0.000  -0.000
    9       -0.000   0.000   0.000   0.000
   10       -0.000  -0.000   0.000  -0.000
   11       -0.000  -0.000   0.000  -0.000
   12        0.000   0.000   0.000   0.000
   13       -0.000  -0.000   0.000  -0.000
   14        0.000   0.001   0.001   0.002
   15       -0.000  -0.000  -0.000  -0.000
   16       -0.000   0.000   0.000   0.000
   17        0.000   0.000  -0.000   0.000
   18        0.001   0.003   0.002   0.006
   19        0.000   0.001   0.001   0.003
   20       -0.000  -0.000  -0.000  -0.000
   21       -0.000  -0.000  -0.000  -0.000
   22        0.001   0.001   0.000   0.002
   23       -0.000  -0.000   0.000  -0.000
   24       -0.000  -0.000   0.000   0.000
   25        0.001   0.003   0.002   0.006
   26       -0.000   0.000   0.000   0.000
   27        0.000   0.000   0.000   0.000
   28       -0.000   0.000   0.000   0.000
   29        0.000   0.000  -0.000   0.000
   30        0.001   0.003   0.002   0.006
   31        0.000   0.001   0.001   0.003
   32        0.001   0.001   0.000   0.002
   33       -0.000   0.000   0.000   0.000
   34       -0.000   0.000  -0.000  -0.000
   35       -0.000   0.000   0.000   0.000
   36       -0.000  -0.000  -0.000  -0.000
   37        0.000   0.000   0.000   0.000
   38        0.001   0.003   0.002   0.006
   39       -0.000   0.000   0.000   0.000
   40       -0.000  -0.000  -0.000  -0.000
   41        0.000   0.000   0.000   0.000
   42       -0.000  -0.000   0.000   0.000
   43        0.000   0.000   0.000   0.000
   44       -0.000  -0.000  -0.000  -0.000
   45       -0.000  -0.000  -0.000  -0.000
   46       -0.000  -0.000  -0.000  -0.000
   47       -0.000   0.000   0.000   0.000
   48       -0.000  -0.000   0.000  -0.000
   49       -0.000  -0.000   0.000  -0.000
   50       -0.000  -0.000   0.000  -0.000
   51       -0.000  -0.000   0.000  -0.000
   52       -0.000  -0.000   0.000  -0.000
   53       -0.000  -0.000  -0.000  -0.000
   54       -0.000   0.000   0.000   0.000
   55       -0.000  -0.000   0.000  -0.000
   56        0.000  -0.000  -0.000  -0.000
   57        0.000   0.000   0.000   0.000
   58        0.000   0.000   0.000   0.000
   59        0.000   0.000   0.000   0.000
   60       -0.000  -0.000  -0.000  -0.000
[...]
  146       -0.000   0.000   0.000   0.000
  147        0.000   0.001   0.000   0.001
  148       -0.000   0.000   0.000   0.000
  149        0.000   0.000   0.000   0.000
  150        0.000   0.000   0.000   0.000
  151        0.000   0.000   0.000   0.000
  152        0.000   0.000   0.000   0.000
  153        0.000   0.000   0.000   0.000
  154       -0.000  -0.000   0.000  -0.000
  155        0.000   0.000   0.000   0.000
  156       -0.000  -0.000   0.000  -0.000
  157        0.000   0.000   0.000   0.000
  158       -0.000  -0.000   0.000  -0.000
  159       -0.000   0.000   0.000   0.000
  160        0.000   0.000   0.000   0.000
tot          0.066   0.512   4.281   4.859