 vasp.5.4.1 05Feb16 (build May 04 2017 01:30:51) complex

 executed on      LLNL_Quartz_ifc date 2017.11.18  16:36:18

 INCAR:
 POTCAR:   PAW_PBE Ga_d 06Sep2000
 POTCAR:   PAW_PBE O 08Apr2002

 POTCAR:   PAW_PBE Ga_d 06Sep2000
   VRHFIN =Ga: s2p1

   TITEL  = PAW_PBE Ga_d 06Sep2000
   POMASS =   69.723; ZVAL   =   13.000    mass and valenz
   ENMAX  =  282.697; ENMIN  =  212.022 eV
   QCUT   =   -4.558; QGAM   =    9.117    optimization parameters

   Description
     l     E      TYP  RCUT    TYP  RCUT
     2   .000     23  2.300
     2  -.400     23  2.300
     0   .000     23  2.300
     0   .000     23  2.300
     1   .000     23  2.300
     1   .000     23  2.300
     3  -.100      7  2.300

 POTCAR:   PAW_PBE O 08Apr2002
   VRHFIN =O: s2p4

   TITEL  = PAW_PBE O 08Apr2002
   POMASS =   16.000; ZVAL   =    6.000    mass and valenz
   ENMAX  =  400.000; ENMIN  =  300.000 eV
   QCUT   =   -5.520; QGAM   =   11.041    optimization parameters

   Description
     l     E      TYP  RCUT    TYP  RCUT
     0   .000     23  1.200
     0  -.700     23  1.200
     1   .000     23  1.520
     1   .600     23  1.520
     2   .000      7  1.500

 Optimization of the real space projectors (new method)

 maximal supplied QI-value         = 16.25
 optimisation between [QCUT,QGAM] = [ 10.24, 20.48] = [ 29.35,117.42] Ry
 Optimized for a Real-space Cutoff    1.38 Angstroem

   l    n(q)    QCUT    max X(q) W(low)/X(q) W(high)/X(q)  e(spline)
   2      7    10.239     6.328    0.33E-04    0.68E-04    0.30E-07
   2      7    10.239     9.625    0.20E-03    0.23E-03    0.80E-07
   0      8    10.239     9.711    0.17E-04    0.17E-04    0.13E-07
   0      8    10.239    32.764    0.56E-04    0.14E-03    0.62E-07
   1      8    10.239     7.413    0.78E-04    0.28E-04    0.38E-07
   1      8    10.239    31.472    0.43E-03    0.30E-03    0.73E-07
 Optimization of the real space projectors (new method)

 maximal supplied QI-value         = 24.76
 optimisation between [QCUT,QGAM] = [ 10.15, 20.30] = [ 28.85,115.39] Ry
 Optimized for a Real-space Cutoff    1.30 Angstroem

   l    n(q)    QCUT    max X(q) W(low)/X(q) W(high)/X(q)  e(spline)
   0      8    10.150     4.192    0.55E-04    0.58E-04    0.78E-07
   0      8    10.150     8.473    0.46E-03    0.68E-03    0.23E-06
   1      7    10.150     2.474    0.11E-03    0.93E-04    0.33E-07
   1      7    10.150     3.912    0.46E-03    0.50E-03    0.15E-06
 PAW_PBE Ga_d 06Sep2000                 :
 PAW_PBE O 08Apr2002                    :

 POSCAR: Ga  O
  positions in direct lattice
  velocities in cartesian coordinates
 exchange correlation table for  LEXCH =        8
   RHO(1)=    0.500       N(1)  =     2000
   RHO(2)=  100.500       N(2)  =     4000

 ion  position               nearest neighbor table
   1  0.500  0.376  0.500- 124 1.92 134 1.92  71 2.02  82 2.02  83 2.02 122 2.02  23 2.81  41 2.81
                            20 2.81  37 2.81
   2  0.091  1.000  0.397-  98 1.82 107 1.82 139 1.83 105 1.86
   3  0.411  0.614  0.602-  71 1.79  84 1.84 120 1.88 156 1.89
   4  0.589  0.624  0.898-  70 1.82  85 1.82 157 1.84 135 1.87
   5  0.160  0.625  0.656-  79 1.93  77 1.94 148 1.95 120 2.00  74 2.01 153 2.10
   6  0.841  0.626  0.845-  76 1.92  78 1.93 149 1.94 135 1.99  75 2.06 152 2.09
   7  0.913  0.500  0.606-  89 1.82  77 1.83 117 1.83  75 1.86
   8  0.088  0.501  0.894-  67 1.82  74 1.83 116 1.83  76 1.83
   9  0.841  0.375  0.848- 116 1.93  64 1.93  78 1.93 118 1.94  75 2.10 115 2.11
  10  0.914  0.250  0.606- 130 1.82  96 1.83 117 1.83 115 1.86
  11  0.087  0.248  0.894- 131 1.82  92 1.83  95 1.84 116 1.84
  12  0.840  0.625  0.344-  89 1.93  88 1.94 137 1.95  80 2.00  87 2.01 140 2.10
  13  0.657  0.001  0.654- 101 1.91 113 1.92 154 1.94  94 2.04 132 2.08 159 2.09
  14  0.159  0.626  0.155-  69 1.92  67 1.93 136 1.94  81 1.99  86 2.06 141 2.09
  15  0.086  0.250  0.394- 119 1.82 107 1.83 128 1.83 126 1.86
  16  0.913  0.248  0.106- 118 1.82 127 1.83 108 1.84 129 1.84
  17  0.834  0.375  0.349-  91 1.86  89 1.92 130 1.92 128 1.99  87 2.18 127 2.20
  18  0.159  0.375  0.152- 129 1.93 121 1.93  67 1.93 131 1.94  86 2.10 126 2.11
  19  0.414  0.375  0.107-  90 1.82  68 1.82 123 1.83 121 1.84
  20  0.337  0.250  0.342- 122 1.89 124 1.90 103 1.97 126 2.01 100 2.09 121 2.13   1 2.81
  21  0.661  0.255  0.160-  91 1.92 123 1.94 125 1.96 104 2.00 127 2.03  99 2.11  36 2.92
  22  0.411  0.624  0.102-  68 1.82  72 1.82 144 1.84  81 1.87
  23  0.337  0.501  0.340-  82 1.89 124 1.89  84 1.97  86 2.01  81 2.07 121 2.11   1 2.81
  24  0.589  0.614  0.398-  82 1.79  73 1.84  80 1.88 145 1.89
  25  0.342  0.002  0.842- 114 1.93 112 1.93 155 1.96  93 2.02 133 2.05 158 2.07
  26  0.412  0.136  0.602-  83 1.80 103 1.84 133 1.88 113 1.89
  27  0.590  0.126  0.898-  66 1.82 104 1.82 114 1.83 132 1.87
  28  0.909  1.000  0.104- 108 1.82  97 1.82 138 1.83 106 1.85
  29  0.840  0.125  0.344- 130 1.93 109 1.94 107 1.94  99 2.00 127 2.01 106 2.08
  30  0.160  0.124  0.156- 108 1.92 131 1.93 110 1.94 100 1.99 126 2.06 105 2.07
  31  0.588  0.136  0.398- 122 1.80 101 1.84  99 1.88 102 1.89
  32  0.410  0.126  0.102- 123 1.82 112 1.82 111 1.83 100 1.87
  33  0.343  0.001  0.346- 103 1.91 102 1.92 143 1.94 105 2.04 100 2.08 146 2.09
  34  0.658  0.002  0.158- 111 1.93 104 1.93 142 1.96 106 2.02  99 2.05 147 2.07
  35  0.087  0.500  0.394-  79 1.82  88 1.83 128 1.83  86 1.86
  36  0.661  0.495  0.160-  91 1.92  68 1.94 125 1.95  85 1.99  87 2.03  80 2.10  21 2.92
  37  0.663  0.250  0.658-  83 1.89 134 1.90 101 1.97 115 2.01 132 2.09  64 2.13   1 2.81
  38  0.912  0.501  0.106-  78 1.82  87 1.83 129 1.83  69 1.83
  39  0.586  0.375  0.893- 125 1.82  70 1.82  66 1.83  64 1.84
  40  0.166  0.375  0.651-  65 1.86  79 1.92 119 1.92 117 1.99  74 2.18  92 2.20
  41  0.663  0.501  0.660-  71 1.89 134 1.89  73 1.97  75 2.01 135 2.07  64 2.11   1 2.81
  42  0.339  0.495  0.840-  65 1.92  70 1.94  90 1.95  72 1.99  74 2.03 120 2.10  47 2.92
  43  0.091  1.000  0.896-  95 1.82 110 1.82 151 1.83  93 1.85
  44  0.909  1.000  0.603- 109 1.82  96 1.82 150 1.83  94 1.86
  45  0.840  0.124  0.844-  95 1.92 118 1.93  97 1.94 132 1.99 115 2.06  94 2.07
  46  0.160  0.125  0.656- 119 1.93  98 1.94  96 1.94 133 2.00  92 2.01  93 2.08
  47  0.339  0.255  0.840-  65 1.92  66 1.94  90 1.96 112 2.00  92 2.03 133 2.11  42 2.92
  48  0.090  0.750  0.396- 148 1.82  88 1.83 139 1.83 141 1.86
  49  0.911  0.751  0.104- 149 1.83  69 1.83 138 1.83 140 1.86
  50  0.840  0.875  0.343- 109 1.93 137 1.93 139 1.94 147 2.02 106 2.05 140 2.06
  51  0.161  0.875  0.157- 110 1.94 136 1.94 138 1.94 146 2.01 105 2.05 141 2.05
  52  0.587  0.875  0.396- 154 1.83 102 1.84 145 1.84 147 1.86
  53  0.410  0.875  0.103- 155 1.82 111 1.83 144 1.83 146 1.86
  54  0.343  0.749  0.346-  84 1.92 145 1.92 143 1.94 141 2.04  81 2.10 146 2.10
  55  0.659  0.749  0.157- 144 1.93  85 1.94 142 1.96 140 2.01  80 2.07 147 2.08
  56  0.089  0.751  0.896- 136 1.83  76 1.83 151 1.83 153 1.86
  57  0.910  0.750  0.604- 137 1.82  77 1.83 150 1.83 152 1.86
  58  0.839  0.875  0.843-  97 1.94 149 1.94 151 1.94 159 2.01  94 2.05 152 2.05
  59  0.160  0.875  0.657-  98 1.93 148 1.93 150 1.94 158 2.02  93 2.05 153 2.06
  60  0.590  0.875  0.897- 142 1.82 114 1.83 157 1.83 159 1.86
  61  0.413  0.875  0.604- 143 1.83 113 1.84 156 1.84 158 1.86
[...]
 145  0.505  0.746  0.373-  52 1.84  24 1.89  54 1.92
 146  0.329  0.875  0.220-  53 1.86  51 2.01  33 2.09  54 2.10
 147  0.671  0.875  0.281-  52 1.86  50 2.02  34 2.07  55 2.08
 148  0.163  0.751  0.553-  48 1.82  59 1.93   5 1.95
 149  0.836  0.752  0.947-  49 1.83  58 1.94   6 1.94
 150  0.996  0.876  0.628-  44 1.83  57 1.83  59 1.94
 151  0.003  0.876  0.872-  43 1.83  56 1.83  58 1.94
 152  0.827  0.752  0.719-  57 1.86  63 2.04  58 2.05   6 2.09
 153  0.173  0.752  0.781-  56 1.86  62 2.01  59 2.06   5 2.10
 154  0.663  0.876  0.553-  52 1.83  13 1.94  63 1.94
 155  0.337  0.876  0.946-  53 1.82  25 1.96  62 1.96
 156  0.495  0.746  0.627-  61 1.84   3 1.89  63 1.92
 157  0.504  0.750  0.873-  60 1.83   4 1.84  62 1.93
 158  0.329  0.875  0.719-  61 1.86  59 2.02  25 2.07  62 2.08
 159  0.671  0.875  0.780-  60 1.86  58 2.01  13 2.09  63 2.10

  LATTYP: Found a simple monoclinic cell.
 ALAT       =    14.6889751464
 B/A-ratio  =     0.8259161174
 C/A-ratio  =     1.5972413798
 COS(beta)  =    -0.9171837574

  Lattice vectors:

 A1 = ( -11.8609006218,   0.0000000000,  -8.6651617002)
 A2 = (   0.0000000000, -12.1318613217,   0.0000000000)
 A3 = (  11.8609006218,   0.0000000000,  20.2429474736)

Analysis of symmetry for initial positions (statically):
 Subroutine PRICEL returns:
 Original cell was already a primitive cell.

 Routine SETGRP: Setting up the symmetry group for a
 simple monoclinic supercell.

 Subroutine GETGRP returns: Found  2 space group operations
 (whereof  2 operations were pure point group operations)
 out of a pool of  4 trial point group operations.

The static configuration has the point symmetry C_2 .

Analysis of symmetry for dynamics (positions and initial velocities):
 Subroutine PRICEL returns:
 Original cell was already a primitive cell.

 Routine SETGRP: Setting up the symmetry group for a
 simple monoclinic supercell.

 Subroutine GETGRP returns: Found  2 space group operations
 (whereof  2 operations were pure point group operations)
 out of a pool of  4 trial point group operations.

The dynamic configuration has the point symmetry C_2 .

 Subroutine INISYM returns: Found  2 space group operations
 (whereof  2 operations are pure point group operations),
 and found     1 'primitive' translations

 KPOINTS: KPOINTS created by Atomic Simulation Env
  k-points in reciprocal lattice
Space group operators:
 irot       det(A)        alpha          n_x          n_y          n_z        tau_x        tau_y        tau_z
    1     1.000000     0.000000     1.000000     0.000000     0.000000     0.000000     0.000000     0.000000
    2     1.000000   180.000000     0.000000     1.000000     0.000000     0.000000     0.000000     0.000000

 Subroutine IBZKPT_HF returns following result:

 Found      4 k-points in 1st BZ
 the following      4 k-points will be used (e.g. in the exchange kernel)
 Following reciprocal coordinates:   # in IRBZ
  0.250000  0.250000  0.250000    0.25000000   1 t-inv F
 -0.250000  0.250000 -0.250000    0.25000000   1 t-inv F
 -0.250000 -0.250000 -0.250000    0.25000000   1 t-inv T
  0.250000 -0.250000  0.250000    0.25000000   1 t-inv T

 I would recommend the setting:
   dimension x,y,z NGX =    60 NGY =   59 NGZ =   57
 SYSTEM =  unknown system
 POSCAR =  Ga  O

 Startparameter for this run:
   NWRITE =      2    write-flag & timer
   PREC   = normal    normal or accurate (medium, high low for compatibility)
   ISTART =      1    job   : 0-new  1-cont  2-samecut
   ICHARG =      0    charge: 1-file 2-atom 10-const
   ISPIN  =      1    spin polarized calculation?
   LNONCOLLINEAR =      F non collinear calculations
   LSORBIT =      F    spin-orbit coupling
   INIWAV =      1    electr: 0-lowe 1-rand  2-diag
   LASPH  =      F    aspherical Exc in radial PAW
   METAGGA=      F    non-selfconsistent MetaGGA calc.

 Electronic Relaxation 1
[...]
   -.976E+02 0.302E+02 0.672E+01   0.973E+02 -.296E+02 -.565E+01   0.226E+00 -.495E+00 -.968E+00
   -.137E+02 0.506E+01 -.560E+02   0.122E+02 -.476E+01 0.609E+02   0.133E+01 -.287E+00 -.461E+01
   0.110E+03 -.496E+02 0.400E+02   -.109E+03 0.492E+02 -.430E+02   -.137E+01 0.337E+00 0.272E+01
   -.955E+02 -.388E+02 0.760E+01   0.956E+02 0.379E+02 -.644E+01   -.118E-01 0.790E+00 -.105E+01
   0.127E+02 0.267E+02 -.105E+03   -.121E+02 -.287E+02 0.109E+03   -.594E+00 0.187E+01 -.333E+01
   0.670E+02 -.112E+02 0.778E+02   -.697E+02 0.124E+02 -.837E+02   0.258E+01 -.105E+01 0.554E+01
   0.528E+01 0.305E+01 0.647E+02   -.633E+01 -.397E+01 -.692E+02   0.973E+00 0.868E+00 0.416E+01
   -.110E+03 -.496E+02 -.400E+02   0.109E+03 0.492E+02 0.430E+02   0.137E+01 0.337E+00 -.272E+01
   0.955E+02 -.388E+02 -.760E+01   -.956E+02 0.379E+02 0.644E+01   0.118E-01 0.790E+00 0.105E+01
   0.634E+02 0.566E+01 -.151E+03   -.714E+02 -.534E+01 0.156E+03   0.739E+01 -.302E+00 -.390E+01
   0.137E+02 0.506E+01 0.560E+02   -.122E+02 -.476E+01 -.609E+02   -.133E+01 -.287E+00 0.461E+01
   -.328E+02 0.492E+01 -.366E+02   0.315E+02 -.467E+01 0.338E+02   0.116E+01 -.232E+00 0.258E+01
   -.284E+02 -.323E+01 -.692E+02   0.343E+02 0.696E+01 0.763E+02   -.539E+01 -.340E+01 -.653E+01
   0.943E+02 -.101E+02 0.409E+01   -.947E+02 0.166E+02 -.338E+01   0.375E+00 -.604E+01 -.619E+00
   0.406E+02 0.333E+02 -.318E+00   -.384E+02 -.343E+02 -.265E+01   -.199E+01 0.916E+00 0.268E+01
   -.310E+02 0.216E+01 -.643E+02   0.368E+02 -.591E+01 0.715E+02   -.534E+01 0.342E+01 -.660E+01
   -.947E+02 0.110E+03 0.381E+02   0.909E+02 -.114E+03 -.351E+02   0.345E+01 0.296E+01 -.278E+01
   -.623E+02 -.221E+02 -.493E+02   0.639E+02 0.233E+02 0.537E+02   -.148E+01 -.115E+01 -.404E+01
   0.906E+02 -.120E+03 -.362E+02   -.875E+02 0.123E+03 0.331E+02   -.287E+01 -.269E+01 0.274E+01
   -.421E+02 -.455E+02 0.251E+00   0.398E+02 0.461E+02 0.271E+01   0.208E+01 -.597E+00 -.268E+01
   0.938E+02 -.689E+01 0.864E+01   -.913E+02 0.698E+01 -.110E+02   -.233E+01 -.823E-01 0.212E+01
   0.152E+02 -.393E+02 -.109E+03   -.145E+02 0.410E+02 0.113E+03   -.665E+00 -.152E+01 -.323E+01
   0.351E+01 -.163E+02 0.632E+02   -.463E+01 0.168E+02 -.677E+02   0.104E+01 -.476E+00 0.420E+01
   -.906E+02 -.120E+03 0.362E+02   0.875E+02 0.123E+03 -.331E+02   0.287E+01 -.269E+01 -.274E+01
   0.421E+02 -.455E+02 -.251E+00   -.398E+02 0.461E+02 -.271E+01   -.208E+01 -.597E+00 0.268E+01
   -.670E+02 -.112E+02 -.778E+02   0.697E+02 0.124E+02 0.837E+02   -.258E+01 -.105E+01 -.554E+01
   0.623E+02 -.221E+02 0.493E+02   -.639E+02 0.233E+02 -.537E+02   0.148E+01 -.115E+01 0.404E+01
   -.112E+03 0.443E+02 -.420E+02   0.110E+03 -.441E+02 0.449E+02   0.169E+01 -.162E+00 -.262E+01
   0.948E+02 0.669E+01 0.272E+01   -.952E+02 -.133E+02 -.211E+01   0.403E+00 0.609E+01 -.523E+00
   0.284E+02 -.323E+01 0.692E+02   -.343E+02 0.696E+01 -.763E+02   0.539E+01 -.340E+01 0.653E+01
   0.976E+02 0.302E+02 -.672E+01   -.973E+02 -.296E+02 0.565E+01   -.226E+00 -.495E+00 0.968E+00
   0.328E+02 0.492E+01 0.366E+02   -.315E+02 -.467E+01 -.338E+02   -.116E+01 -.232E+00 -.258E+01
   -.634E+02 0.566E+01 0.151E+03   0.714E+02 -.534E+01 -.156E+03   -.739E+01 -.302E+00 0.390E+01
   0.310E+02 0.216E+01 0.643E+02   -.368E+02 -.591E+01 -.715E+02   0.534E+01 0.342E+01 0.660E+01
   -.948E+02 0.669E+01 -.272E+01   0.952E+02 -.133E+02 0.211E+01   -.403E+00 0.609E+01 0.523E+00
   -.938E+02 -.689E+01 -.864E+01   0.913E+02 0.698E+01 0.110E+02   0.233E+01 -.823E-01 -.212E+01
   0.976E+02 -.148E+02 0.284E+02   -.948E+02 0.152E+02 -.310E+02   -.255E+01 -.300E+00 0.238E+01
   -.351E+01 -.163E+02 -.632E+02   0.463E+01 0.168E+02 0.677E+02   -.104E+01 -.476E+00 -.420E+01
   -.152E+02 -.393E+02 0.109E+03   0.145E+02 0.410E+02 -.113E+03   0.665E+00 -.152E+01 0.323E+01
   -.943E+02 -.101E+02 -.409E+01   0.947E+02 0.166E+02 0.338E+01   -.375E+00 -.604E+01 0.619E+00
   -.923E+02 0.198E+02 -.259E+02   0.900E+02 -.199E+02 0.286E+02   0.206E+01 0.147E+00 -.239E+01
   0.903E+02 0.135E+02 0.574E+01   -.883E+02 -.135E+02 -.812E+01   -.179E+01 -.542E-01 0.215E+01
   -.103E+02 0.867E+01 -.877E+02   0.114E+02 -.850E+01 0.923E+02   -.106E+01 -.168E+00 -.428E+01
   0.156E+02 0.834E+01 0.682E+02   -.163E+02 -.821E+01 -.721E+02   0.729E+00 -.124E+00 0.364E+01
   -.590E+02 0.764E+01 -.111E+02   0.577E+02 -.724E+01 0.134E+02   0.123E+01 -.362E+00 -.207E+01
   0.581E+02 0.948E+01 0.666E+01   -.561E+02 -.920E+01 -.916E+01   -.182E+01 -.263E+00 0.225E+01
   -.659E+02 0.123E+02 -.746E+02   0.684E+02 -.134E+02 0.808E+02   -.231E+01 0.102E+01 -.571E+01
   0.600E+02 0.267E+02 0.515E+02   -.614E+02 -.277E+02 -.559E+02   0.130E+01 0.955E+00 0.404E+01
   -.903E+02 0.135E+02 -.574E+01   0.883E+02 -.135E+02 0.812E+01   0.179E+01 -.542E-01 -.215E+01
   0.923E+02 0.198E+02 0.259E+02   -.900E+02 -.199E+02 -.286E+02   -.206E+01 0.147E+00 0.239E+01
   -.156E+02 0.834E+01 -.682E+02   0.163E+02 -.821E+01 0.721E+02   -.729E+00 -.124E+00 -.364E+01
   0.103E+02 0.867E+01 0.877E+02   -.114E+02 -.850E+01 -.923E+02   0.106E+01 -.168E+00 0.428E+01
   -.581E+02 0.948E+01 -.666E+01   0.561E+02 -.920E+01 0.916E+01   0.182E+01 -.263E+00 -.225E+01
[...]
   -.637E+02 0.541E+01 0.413E+02   0.632E+02 -.553E+01 -.351E+02   0.299E+00 0.147E-01 -.524E+01
   0.579E+02 0.464E+01 -.630E+02   -.571E+02 -.470E+01 0.579E+02   -.612E+00 -.333E-01 0.439E+01
   -.121E+03 0.142E+02 0.883E+02   0.133E+03 -.147E+02 -.874E+02   -.946E+01 0.411E+00 -.751E+00
   0.120E+03 0.495E+01 -.905E+02   -.132E+03 -.497E+01 0.897E+02   0.965E+01 -.316E-01 0.610E+00
   -.212E+02 0.263E+01 -.591E+01   0.298E+02 -.254E+01 0.752E+01   -.728E+01 -.202E+00 -.129E+01
   0.234E+02 0.230E+01 0.985E+01   -.322E+02 -.215E+01 -.110E+02   0.743E+01 -.249E+00 0.947E+00
   -.296E+02 0.908E+01 0.602E+02   0.280E+02 -.959E+01 -.552E+02   0.122E+01 0.392E+00 -.428E+01
   0.314E+02 0.124E+02 -.455E+02   -.305E+02 -.130E+02 0.399E+02   -.708E+00 0.434E+00 0.475E+01
   -.984E+02 0.173E+01 0.977E+02   0.110E+03 -.153E+01 -.973E+02   -.971E+01 -.285E+00 -.227E+00
   0.979E+02 0.325E+01 -.802E+02   -.109E+03 -.309E+01 0.783E+02   0.961E+01 -.254E+00 0.150E+01
   0.948E+01 0.263E+02 -.153E+02   -.470E+01 -.290E+02 0.171E+02   -.409E+01 0.241E+01 -.149E+01
   0.214E+02 0.140E+02 0.202E+02   -.293E+02 -.142E+02 -.219E+02   0.667E+01 0.178E+00 0.137E+01
   -.579E+02 0.464E+01 0.630E+02   0.571E+02 -.470E+01 -.579E+02   0.612E+00 -.333E-01 -.439E+01
   0.637E+02 0.541E+01 -.413E+02   -.632E+02 -.553E+01 0.351E+02   -.299E+00 0.147E-01 0.524E+01
   -.547E-05 0.189E+01 0.681E-05   0.256E-12 -.609E-11 0.186E-11   -.522E-14 -.172E+01 0.533E-14

 POSITION                                       TOTAL-FORCE (eV/Angst)
      5.93045      4.56107      4.33258        -0.000000     -0.000787     -0.000000
      1.07994     12.13121      4.32593         0.002099     -0.001841      0.005721
      4.88044      7.44867      5.76722        -0.007654     -0.000840      0.000008
      6.99057      7.56828      8.68182         0.000715      0.002621      0.002181
      1.89853      7.57636      7.12897        -0.001615      0.003645     -0.001566
      9.97036      7.59062      7.33286         0.001559      0.005967      0.002084
     10.82624      6.06433      4.35352        -0.003874      0.009686     -0.005118
      1.04594      6.08116     10.09921         0.000088      0.013084     -0.003865
      9.97671      4.54831      7.36798         0.000430      0.002426      0.004253
     10.84123      3.03320      4.35116         0.004192     -0.006023     -0.003295
      1.03406      3.01441     10.10091        -0.003783     -0.004618     -0.006206
      9.96237      7.57636      1.53619         0.001615      0.003645      0.001566
      7.78859      0.01314      5.66265        -0.004001     -0.000131     -0.003976
      1.89054      7.59062      1.33230        -0.001559      0.005967     -0.002084
      1.01967      3.03320      4.31400        -0.004192     -0.006023      0.003295
     10.82684      3.01441     -1.43575         0.003783     -0.004618      0.006206
      9.88709      4.54902      1.60907        -0.000936      0.000014      0.001350
      1.88419      4.54831      1.29719        -0.000430      0.002426     -0.004253
      4.91038      4.54662      0.03660         0.007365      0.007458     -0.001986
      4.00245      3.02834      2.97231         0.002774     -0.000291      0.005380
      7.84377      3.09212     -0.07381         0.000701     -0.002938      0.000156
      4.87033      7.56828     -0.01666        -0.000715      0.002621     -0.002181
      4.00278      6.07497      2.95756        -0.002659     -0.001417     -0.004834
      6.98046      7.44867      2.89794         0.007654     -0.000840     -0.000008
      4.05319      0.02001      8.75105         0.001928     -0.003049     -0.001675
      4.89264      1.64878      5.76817        -0.001281     -0.004750      0.001171
      6.99423      1.52324      8.68296         0.001802     -0.010758     -0.001079
     10.78377     12.12641     -1.44479        -0.006019     -0.006310      0.003703
      9.96075      1.51590      1.53437        -0.003060     -0.003135     -0.000169
      1.89278      1.50338      1.33764         0.002298     -0.004687      0.001935
      6.96826      1.64878      2.89699         0.001281     -0.004750     -0.001171
      4.86667      1.52324     -0.01780        -0.001802     -0.010758      0.001079
      4.07231      0.01314      3.00251         0.004001     -0.000131      0.003976
      7.80771      0.02001     -0.08589        -0.001928     -0.003049      0.001675
      1.03466      6.06433      4.31164         0.003874      0.009686      0.005118
      7.84208      6.00849     -0.07055         0.003605      0.001910     -0.000267
      7.85845      3.02834      5.69285        -0.002774     -0.000291     -0.005380
     10.81496      6.08116     -1.43405        -0.000088      0.013084      0.003865
      6.95052      4.54662      8.62856        -0.007365      0.007458      0.001986
      1.97381      4.54902      7.05609         0.000936      0.000014     -0.001350
      7.85812      6.07497      5.70760         0.002659     -0.001417      0.004834
      4.01882      6.00849      8.73571        -0.003605      0.001910      0.000267
      1.07713     12.12641     10.10995         0.006019     -0.006310     -0.003703
     10.78096     12.13121      4.33923        -0.002099     -0.001841     -0.005721
      9.96812      1.50338      7.32752        -0.002298     -0.004687     -0.001935
      1.90015      1.51590      7.13080         0.003060     -0.003135      0.000169
      4.01713      3.09212      8.73897        -0.000701     -0.002938     -0.000156
      1.06613      9.10347      4.32751        -0.004113      0.001384     -0.005238
     10.80003      9.11102     -1.44673        -0.002482      0.002246      0.002044
      9.96766     10.62010      1.52834        -0.003825     -0.000203     -0.000051
      1.90424     10.62078      1.35583         0.004755      0.001576      0.003005
      6.96729     10.61150      2.87049        -0.003213      0.004726     -0.006652
      4.86217     10.61649     -0.00524         0.000376     -0.003544     -0.001401
      4.06638      9.08617      3.01151         0.004056     -0.000360      0.000290
      7.81283      9.08202     -0.09686        -0.000946      0.001422      0.001383
      1.06087      9.11102     10.11189         0.002482      0.002246     -0.002044
     10.79477      9.10347      4.33765         0.004113      0.001384      0.005238
      9.95666     10.62078      7.30933        -0.004755      0.001576     -0.003005
      1.89324     10.62010      7.13682         0.003825     -0.000203      0.000051
      6.99873     10.61649      8.67040        -0.000376     -0.003544      0.001401
[...]
      5.98416      9.05247      2.84938         0.001190     -0.018947      0.000704
      3.90015     10.62088      1.58534         0.004308     -0.001320      0.001587
      7.96385     10.62017      1.29684        -0.004678     -0.003728      0.002204
      1.92768      9.11388      5.93360        -0.005424      0.001078      0.000038
      9.91543      9.11926      8.53405        -0.002725      0.005824     -0.000893
     11.81881     10.62499      4.37149         0.002272      0.002867      0.002376
      0.03213     10.62679     10.09276        -0.002094      0.004523     -0.000414
      9.81263      9.12004      5.91903        -0.005426      0.004136     -0.002739
      2.04761      9.12470      8.53950         0.001862      0.002128      0.001569
      7.85886     10.62157      4.47080        -0.024083     -0.003009      0.003071
      3.99162     10.62444      9.97027         0.004853     -0.002349     -0.002520
      5.87674      9.05247      5.81578        -0.001190     -0.018947     -0.000704
      5.97550      9.09856      8.64056         0.001627     -0.008537     -0.000344
      3.89705     10.62017      7.36832         0.004678     -0.003728     -0.002204
      7.96075     10.62088      7.07982        -0.004308     -0.001320     -0.001587
    total drift:                               -0.000005     -0.281852      0.000007

  FREE ENERGIE OF THE ION-ELECTRON SYSTEM (eV)
  free  energy   TOTEN  =     -1489.94727745 eV

  energy  without entropy=    -1489.94727745  energy(sigma->0) =    -1489.94727745

 d Force = 0.2375647E-05[-0.394E-05, 0.869E-05]  d Energy = 0.1324644E-04-0.109E-04
 d Force =-0.4727463E-01[-0.473E-01,-0.472E-01]  d Ewald  =-0.4727593E-01 0.129E-05

 reached required accuracy - stopping structural energy minimisation
 writing wavefunctions

 total charge

# of ion     s       p       d       tot
  1        0.675   0.851  10.288  11.814
  2        0.761   1.029  10.316  12.105
  3        0.750   0.984  10.291  12.025
  4        0.759   1.018  10.309  12.085
  5        0.659   0.838  10.279  11.776
  6        0.662   0.842  10.280  11.783
  7        0.759   1.022  10.312  12.094
  8        0.763   1.036  10.320  12.120
  9        0.665   0.847  10.283  11.796
 10        0.758   1.014  10.307  12.079
 11        0.762   1.028  10.315  12.104
 12        0.659   0.838  10.279  11.776
 13        0.662   0.837  10.275  11.774
 14        0.662   0.842  10.280  11.783
 15        0.758   1.014  10.307  12.079
 16        0.762   1.028  10.315  12.104
 17        0.679   0.847  10.272  11.798
 18        0.665   0.847  10.283  11.796
 19        0.762   1.035  10.319  12.117
 20        0.680   0.858  10.283  11.822
 21        0.664   0.832  10.272  11.767
 22        0.759   1.018  10.309  12.085
 23        0.681   0.869  10.291  11.841
 24        0.750   0.984  10.291  12.025
 25        0.658   0.834  10.275  11.767
 26        0.748   0.976  10.286  12.010
 27        0.759   1.021  10.311  12.091
 28        0.761   1.029  10.315  12.105
 29        0.660   0.844  10.283  11.787
 30        0.662   0.846  10.284  11.792
 31        0.748   0.976  10.286  12.010
 32        0.759   1.021  10.311  12.091
 33        0.662   0.837  10.275  11.774
 34        0.658   0.834  10.275  11.767
 35        0.759   1.022  10.312  12.094
 36        0.666   0.843  10.280  11.788
 37        0.680   0.858  10.283  11.822
 38        0.763   1.036  10.320  12.120
 39        0.762   1.035  10.319  12.117
 40        0.679   0.847  10.272  11.798
 41        0.681   0.869  10.291  11.841
 42        0.666   0.843  10.280  11.788
 43        0.761   1.029  10.315  12.105
 44        0.761   1.029  10.316  12.105
 45        0.662   0.846  10.284  11.792
 46        0.660   0.844  10.283  11.787
 47        0.664   0.832  10.272  11.767
 48        0.759   1.018  10.309  12.086
 49        0.759   1.020  10.310  12.089
 50        0.660   0.841  10.280  11.782
 51        0.659   0.838  10.279  11.775
 52        0.753   0.997  10.296  12.046
 53        0.760   1.021  10.310  12.090
 54        0.661   0.827  10.267  11.755
 55        0.656   0.822  10.267  11.746
 56        0.759   1.020  10.310  12.089
 57        0.759   1.018  10.309  12.086
 58        0.659   0.838  10.279  11.775
 59        0.660   0.841  10.280  11.782
 60        0.760   1.021  10.310  12.090
[...]
145        1.577   3.599   0.000   5.176
146        1.585   3.572   0.000   5.157
147        1.584   3.575   0.000   5.159
148        1.580   3.588   0.000   5.168
149        1.580   3.586   0.000   5.166
150        1.578   3.617   0.000   5.195
151        1.579   3.618   0.000   5.196
152        1.584   3.573   0.000   5.158
153        1.584   3.576   0.000   5.160
154        1.581   3.585   0.000   5.166
155        1.581   3.580   0.000   5.160
156        1.577   3.599   0.000   5.176
157        1.578   3.615   0.000   5.193
158        1.584   3.575   0.000   5.159
159        1.585   3.572   0.000   5.157
tot      196.523 403.045 648.4371248.005