 vasp.5.4.4.18Apr17-6-g9f103f2a35 (build Jun 06 2017 17:32:29) complex

 executed on      LLNL_Quartz_ifc date 2021.09.04  00:25:37

 INCAR:
 POTCAR:   PAW_PBE Ga_d 06Sep2000
 POTCAR:   PAW_PBE Ir 06Sep2000
 POTCAR:   PAW_PBE O 08Apr2002

 POTCAR:   PAW_PBE Ga_d 06Sep2000
   VRHFIN =Ga: s2p1

   TITEL  = PAW_PBE Ga_d 06Sep2000
   POMASS =   69.723; ZVAL   =   13.000    mass and valenz
   ENMAX  =  282.697; ENMIN  =  212.022 eV
   QCUT   =   -4.558; QGAM   =    9.117    optimization parameters

   Description
     l     E      TYP  RCUT    TYP  RCUT
     2   .000     23  2.300
     2  -.400     23  2.300
     0   .000     23  2.300
     0   .000     23  2.300
     1   .000     23  2.300
     1   .000     23  2.300
     3  -.100      7  2.300

 POTCAR:   PAW_PBE Ir 06Sep2000
   VRHFIN =Ir: s1d8

   TITEL  = PAW_PBE Ir 06Sep2000
   POMASS =  192.220; ZVAL   =    9.000    mass and valenz
   ENMAX  =  210.870; ENMIN  =  158.153 eV
   QCUT   =   -3.937; QGAM   =    7.874    optimization parameters

[...]

 POTCAR:   PAW_PBE O 08Apr2002
   VRHFIN =O: s2p4

   TITEL  = PAW_PBE O 08Apr2002
   POMASS =   16.000; ZVAL   =    6.000    mass and valenz
   ENMAX  =  400.000; ENMIN  =  300.000 eV
   QCUT   =   -5.520; QGAM   =   11.041    optimization parameters

   Description
     l     E      TYP  RCUT    TYP  RCUT
     0   .000     23  1.200
     0  -.700     23  1.200
     1   .000     23  1.520
     1   .600     23  1.520
     2   .000      7  1.500

 Optimization of the real space projectors (new method)

 maximal supplied QI-value         = 16.25
 optimisation between [QCUT,QGAM] = [ 10.24, 20.48] = [ 29.35,117.42] Ry
 Optimized for a Real-space Cutoff    1.38 Angstroem

   l    n(q)    QCUT    max X(q) W(low)/X(q) W(high)/X(q)  e(spline)
   2      7    10.239     6.328    0.33E-04    0.68E-04    0.30E-07
   2      7    10.239     9.625    0.20E-03    0.23E-03    0.80E-07
   0      8    10.239     9.711    0.17E-04    0.17E-04    0.13E-07
   0      8    10.239    32.764    0.56E-04    0.14E-03    0.62E-07
   1      8    10.239     7.413    0.78E-04    0.28E-04    0.38E-07
   1      8    10.239    31.472    0.43E-03    0.30E-03    0.73E-07
 Optimization of the real space projectors (new method)

[...]

   l    n(q)    QCUT    max X(q) W(low)/X(q) W(high)/X(q)  e(spline)
   2      9    10.197     3.989    0.32E-04    0.18E-04    0.62E-07
   2      9    10.197    41.237    0.35E-03    0.14E-03    0.40E-06
   0     10    10.197    14.164    0.17E-04    0.12E-05    0.12E-07
   0     10    10.197    44.257    0.49E-04    0.25E-04    0.27E-06
   1     10    10.197     7.849    0.10E-04    0.77E-05    0.25E-07
   1     10    10.197    11.007    0.35E-04    0.49E-04    0.91E-07
 Optimization of the real space projectors (new method)

 maximal supplied QI-value         = 24.76
 optimisation between [QCUT,QGAM] = [ 10.15, 20.30] = [ 28.85,115.39] Ry
 Optimized for a Real-space Cutoff    1.30 Angstroem

   l    n(q)    QCUT    max X(q) W(low)/X(q) W(high)/X(q)  e(spline)
   0      8    10.150     4.192    0.55E-04    0.58E-04    0.78E-07
   0      8    10.150     8.473    0.46E-03    0.68E-03    0.23E-06
   1      7    10.150     2.474    0.11E-03    0.93E-04    0.33E-07
   1      7    10.150     3.912    0.46E-03    0.50E-03    0.15E-06
 PAW_PBE Ga_d 06Sep2000                 :
 PAW_PBE Ir 06Sep2000                   :
 PAW_PBE O 08Apr2002                    :

 POSCAR: Ga Ir  O
  positions in direct lattice
  velocities in cartesian coordinates
 exchange correlation table for  LEXCH =        8
   RHO(1)=    0.500       N(1)  =     2000
   RHO(2)=  100.500       N(2)  =     4000

 ion  position               nearest neighbor table
   1  0.090  1.000  0.396- 140 1.82  99 1.82 108 1.83 106 1.87
   2  0.411  0.626  0.605- 157 1.83  72 1.83  85 1.83 121 1.85
   3  0.589  0.625  0.896-  86 1.83 158 1.83  71 1.83 136 1.86
   4  0.160  0.625  0.655-  78 1.93 149 1.93  80 1.95 121 2.01  75 2.08 154 2.08
   5  0.840  0.625  0.844-  77 1.93 150 1.94  79 1.94 136 2.01 153 2.08  76 2.08
   6  0.910  0.500  0.604-  90 1.83  78 1.83 118 1.83  76 1.86
   7  0.089  0.501  0.894-  77 1.82 117 1.83  68 1.84  75 1.85
   8  0.841  0.375  0.844-  79 1.93 117 1.94 119 1.94  65 2.02  76 2.06 116 2.08
   9  0.911  0.250  0.604- 131 1.83  97 1.83 118 1.83 116 1.86
  10  0.089  0.250  0.897- 117 1.83  96 1.83 132 1.86  93 1.86
  11  0.840  0.625  0.345- 138 1.93  89 1.93  90 1.94  81 2.01 141 2.08  88 2.08
  12  0.660  0.999  0.657- 155 1.93 114 1.94 102 1.95  95 2.00 160 2.05 133 2.07
  13  0.159  0.627  0.154-  70 1.92 137 1.92  68 1.94  82 2.02 142 2.07  87 2.11
  14  0.084  0.250  0.403- 120 1.81 129 1.81 108 1.81 127 1.93
  15  0.910  0.250  0.103- 119 1.82 130 1.84 109 1.84 128 1.86
  16  0.841  0.376  0.344-  90 1.93 129 1.93 131 1.94  92 2.01  88 2.06 128 2.08
  17  0.155  0.380  0.150-  68 1.89 130 1.89 132 1.93  87 2.05 122 2.10 127 2.22
  18  0.594  0.380  0.397- 135 1.80  83 1.82  92 1.83 123 1.91
  19  0.413  0.376  0.101-  91 1.81  69 1.81 124 1.82 122 1.92
  20  0.661  0.250  0.155- 126 1.93 105 1.93 124 1.95 128 2.00 100 2.08  92 2.08
  21  0.411  0.626  0.103-  73 1.82 145 1.83  69 1.83  82 1.87
  22  0.341  0.507  0.341-  85 1.90  83 1.92  82 2.00  87 2.00 125 2.02 122 2.10  64 3.11
  23  0.590  0.626  0.396-  74 1.82 146 1.83  83 1.85  81 1.86
  24  0.341  0.999  0.844- 156 1.92 115 1.93 113 1.95  94 2.01 159 2.06 134 2.07
  25  0.413  0.125  0.610- 114 1.81  84 1.82 134 1.83 104 1.89
  26  0.590  0.125  0.896- 105 1.83 115 1.83  67 1.84 133 1.86
  27  0.909  0.999  0.104-  98 1.82 139 1.83 109 1.84 107 1.85
  28  0.841  0.125  0.344- 110 1.93 108 1.93 131 1.94 100 2.01 107 2.06 128 2.08
  29  0.155  0.120  0.150- 111 1.89 109 1.89 132 1.93 106 2.05 101 2.10 127 2.22
  30  0.594  0.121  0.397- 102 1.80 103 1.82 100 1.83 123 1.91
  31  0.413  0.125  0.101- 113 1.81 112 1.81 124 1.82 101 1.92
  32  0.341  0.993  0.341- 144 1.90 103 1.92 147 2.00 106 2.00 104 2.02 101 2.10  64 3.11
  33  0.660  0.999  0.156- 143 1.92 105 1.93 112 1.94 107 2.00 148 2.06 100 2.09
  34  0.090  0.501  0.396-  89 1.82  80 1.82 129 1.83  87 1.87
  35  0.660  0.501  0.156-  86 1.92 126 1.93  69 1.94  88 2.00  81 2.06  92 2.09
  36  0.661  0.250  0.657- 135 1.94 102 1.94  84 1.95 116 1.99  65 2.06 133 2.06
  37  0.909  0.501  0.104-  79 1.82  70 1.83 130 1.84  88 1.85
  38  0.413  0.375  0.610-  72 1.81  84 1.82  66 1.83 125 1.89
  39  0.590  0.375  0.896- 126 1.83  71 1.83  67 1.84  65 1.86
  40  0.159  0.376  0.658- 118 1.92  80 1.94 120 1.95  66 2.01  75 2.04  93 2.08
  41  0.660  0.501  0.657-  74 1.93  72 1.94 135 1.95  76 2.00 136 2.05  65 2.07
  42  0.341  0.501  0.844-  73 1.92  71 1.93  91 1.95  75 2.01 121 2.06  66 2.07
  43  0.089  0.999  0.894- 152 1.82  96 1.83 111 1.84  94 1.85
  44  0.910  1.000  0.604- 110 1.83 151 1.83  97 1.83  95 1.86
  45  0.841  0.125  0.844-  98 1.93  96 1.94 119 1.94 133 2.02  95 2.06 116 2.08
  46  0.159  0.124  0.658-  97 1.92  99 1.94 120 1.95 134 2.01  94 2.04  93 2.08
  47  0.340  0.250  0.845-  67 1.93 113 1.94  91 1.94  93 2.00  66 2.07 134 2.07
  48  0.088  0.750  0.396- 149 1.83 140 1.83  89 1.83 142 1.87
  49  0.911  0.750  0.104- 150 1.83 139 1.84  70 1.84 141 1.86
  50  0.840  0.875  0.345- 138 1.93 140 1.93 110 1.94 148 2.01 141 2.08 107 2.08
  51  0.159  0.874  0.154- 139 1.92 137 1.92 111 1.94 147 2.02 142 2.07 106 2.11
  52  0.590  0.874  0.396- 155 1.82 146 1.83 103 1.85 148 1.86
  53  0.411  0.875  0.103- 156 1.82 145 1.83 112 1.83 147 1.87
  54  0.340  0.750  0.345- 146 1.93  85 1.94 144 1.94 142 2.00 147 2.09  82 2.09
  55  0.660  0.750  0.155- 145 1.94 143 1.94  86 1.94 141 2.00 148 2.09  81 2.09
  56  0.088  0.750  0.895- 152 1.83  77 1.83 137 1.83 154 1.86
  57  0.912  0.750  0.604- 138 1.83 151 1.84  78 1.84 153 1.86
  58  0.840  0.875  0.844- 152 1.93 150 1.94  98 1.94 160 2.01 153 2.08  95 2.08
  59  0.160  0.875  0.655- 151 1.93 149 1.93  99 1.95 159 2.01  94 2.08 154 2.08
  60  0.589  0.875  0.896- 143 1.83 158 1.83 115 1.83 160 1.86
  61  0.411  0.875  0.605- 157 1.83 114 1.83 144 1.83 159 1.85
  62  0.340  0.750  0.844- 158 1.93  73 1.94 156 1.94 154 2.00 159 2.08 121 2.08
  63  0.660  0.750  0.655- 157 1.94 155 1.94  74 1.94 153 2.00 136 2.09 160 2.09
  64  0.340  0.250  0.340- 123 1.92 127 1.93 104 1.95 125 1.95 122 2.02 101 2.02  22 3.11  32 3.11

  65  0.672  0.375  0.780-  39 1.86   8 2.02  36 2.06  41 2.07
  66  0.328  0.375  0.720-  38 1.83  40 2.01  47 2.07  42 2.07
  67  0.502  0.250  0.872-  39 1.84  26 1.84  47 1.93
  68  0.166  0.501  0.052-   7 1.84  17 1.89  13 1.94
  69  0.497  0.500  0.129-  19 1.81  21 1.83  35 1.94
  70  0.997  0.624  0.128-  37 1.83  49 1.84  13 1.92
  71  0.503  0.500  0.872-  39 1.83   3 1.83  42 1.93
  72  0.497  0.500  0.626-  38 1.81   2 1.83  41 1.94
  73  0.336  0.625  0.947-  21 1.82  42 1.92  62 1.94
  74  0.664  0.624  0.553-  23 1.82  41 1.93  63 1.94
  75  0.173  0.500  0.780-   7 1.85  42 2.01  40 2.04   4 2.08
  76  0.828  0.499  0.720-   6 1.86  41 2.00   8 2.06   5 2.08
  77  0.003  0.625  0.872-   7 1.82  56 1.83   5 1.93
  78  0.997  0.624  0.627-   6 1.83  57 1.84   4 1.93
  79  0.836  0.500  0.947-  37 1.82   8 1.93   5 1.94
  80  0.166  0.499  0.552-  34 1.82  40 1.94   4 1.95
  81  0.672  0.624  0.281-  23 1.86  11 2.01  35 2.06  55 2.09
  82  0.327  0.625  0.219-  21 1.87  22 2.00  13 2.02  54 2.09
  83  0.502  0.500  0.372-  18 1.82  23 1.85  22 1.92
  84  0.497  0.250  0.625-  38 1.82  25 1.82  36 1.95
  85  0.335  0.625  0.448-   2 1.83  22 1.90  54 1.94
  86  0.664  0.624  0.053-   3 1.83  35 1.92  55 1.94
  87  0.174  0.498  0.280-  34 1.87  22 2.00  17 2.05  13 2.11
  88  0.827  0.499  0.220-  37 1.85  35 2.00  16 2.06  11 2.08
  89  0.003  0.624  0.372-  34 1.82  48 1.83  11 1.93
  90  0.835  0.500  0.447-   6 1.83  16 1.93  11 1.94
  91  0.335  0.376  0.947-  19 1.81  47 1.94  42 1.95
  92  0.672  0.375  0.281-  18 1.83  16 2.01  20 2.08  35 2.09
  93  0.173  0.250  0.782-  10 1.86  47 2.00  40 2.08  46 2.08
  94  0.173  0.000  0.780-  43 1.85  24 2.01  46 2.04  59 2.08
  95  0.828  0.001  0.720-  44 1.86  12 2.00  45 2.06  58 2.08
  96  0.004  0.125  0.874-  43 1.83  10 1.83  45 1.94
  97  0.997  0.125  0.627-  44 1.83   9 1.83  46 1.92
  98  0.836  0.000  0.947-  27 1.82  45 1.93  58 1.94
  99  0.166  0.001  0.552-   1 1.82  46 1.94  59 1.95
 100  0.672  0.126  0.281-  30 1.83  28 2.01  20 2.08  33 2.09
 101  0.329  0.125  0.222-  31 1.92  64 2.02  29 2.10  32 2.10
 102  0.663  0.125  0.553-  30 1.80  36 1.94  12 1.95
 103  0.502  0.000  0.372-  30 1.82  52 1.85  32 1.92
 104  0.340  0.126  0.446-  25 1.89  64 1.95  32 2.02
 105  0.663  0.125  0.053-  26 1.83  20 1.93  33 1.93
 106  0.174  0.002  0.280-   1 1.87  32 2.00  29 2.05  51 2.11
 107  0.827  0.001  0.220-  27 1.85  33 2.00  28 2.06  50 2.08
 108  0.003  0.124  0.371-  14 1.81   1 1.83  28 1.93
 109  0.997  0.125  0.129-  15 1.84  27 1.84  29 1.89
 110  0.835  0.001  0.447-  44 1.83  28 1.93  50 1.94
 111  0.166  0.999  0.052-  43 1.84  29 1.89  51 1.94
 112  0.497  1.000  0.129-  31 1.81  53 1.83  33 1.94
 113  0.335  0.125  0.947-  31 1.81  47 1.94  24 1.95
 114  0.497  0.000  0.626-  25 1.81  61 1.83  12 1.94
[...]
   -.994E+02 0.707E-01 -.430E+02   0.961E+02 -.624E-01 0.433E+02   0.298E+01 -.459E-02 -.259E+00
   -.425E+02 0.335E+01 -.726E+02   0.436E+02 -.318E+01 0.775E+02   -.101E+01 -.153E+00 -.452E+01
   0.602E+02 -.218E+02 0.879E+02   -.606E+02 0.207E+02 -.919E+02   0.388E+00 0.936E+00 0.372E+01
   0.216E+02 0.320E+02 0.501E+02   -.238E+02 -.306E+02 -.555E+02   0.197E+01 -.128E+01 0.501E+01
   -.169E+03 0.121E+00 0.688E+02   0.166E+03 -.114E+00 -.626E+02   0.285E+01 -.493E-02 -.556E+01
   0.299E+02 0.194E+00 -.211E+01   -.291E+02 -.181E+00 -.518E+00   -.750E+00 -.114E-01 0.238E+01
   -.419E+02 0.183E+02 -.697E+02   0.432E+02 -.177E+02 0.746E+02   -.118E+01 -.548E+00 -.448E+01
   -.679E+02 0.110E+03 -.129E+02   0.624E+02 -.107E+03 0.563E+01   0.510E+01 -.336E+01 0.676E+01
   0.254E+02 0.839E+02 -.224E+02   -.237E+02 -.795E+02 0.249E+02   -.149E+01 -.406E+01 -.229E+01
   0.116E+03 0.473E+02 -.777E+02   -.112E+03 -.468E+02 0.719E+02   -.358E+01 -.497E+00 0.532E+01
   0.645E+02 0.136E+00 0.512E+02   -.645E+02 -.133E+00 -.563E+02   0.743E-01 -.370E-02 0.483E+01
   0.784E+02 0.174E+02 -.529E+01   -.763E+02 -.173E+02 0.198E+01   -.195E+01 -.147E+00 0.298E+01
   -.265E+02 0.160E+03 -.900E+02   0.278E+02 -.155E+03 0.928E+02   -.121E+01 -.472E+01 -.260E+01
   -.534E+02 0.124E+02 -.148E+02   0.523E+02 -.119E+02 0.174E+02   0.985E+00 -.416E+00 -.230E+01
   -.360E+02 -.222E+02 -.744E+02   0.374E+02 0.211E+02 0.788E+02   -.132E+01 0.103E+01 -.413E+01
   0.119E+03 -.446E+02 0.122E+03   -.114E+03 0.442E+02 -.120E+03   -.416E+01 0.395E+00 -.209E+01
   -.666E+02 -.154E+02 -.143E+02   0.645E+02 0.150E+02 0.167E+02   0.190E+01 0.402E+00 -.217E+01
   0.558E+02 -.153E+02 0.631E+01   -.543E+02 0.148E+02 -.887E+01   -.134E+01 0.520E+00 0.231E+01
   -.417E+02 -.183E+02 -.696E+02   0.430E+02 0.177E+02 0.745E+02   -.119E+01 0.540E+00 -.448E+01
   -.680E+02 -.110E+03 -.129E+02   0.625E+02 0.107E+03 0.562E+01   0.510E+01 0.337E+01 0.676E+01
   0.255E+02 -.840E+02 -.223E+02   -.239E+02 0.795E+02 0.249E+02   -.150E+01 0.406E+01 -.229E+01
   0.116E+03 -.473E+02 -.779E+02   -.112E+03 0.468E+02 0.720E+02   -.357E+01 0.496E+00 0.532E+01
   -.265E+02 -.161E+03 -.900E+02   0.278E+02 0.156E+03 0.927E+02   -.121E+01 0.474E+01 -.260E+01
   0.512E+02 -.221E+02 0.609E+02   -.518E+02 0.212E+02 -.660E+02   0.597E+00 0.865E+00 0.482E+01
   -.117E+03 0.419E+02 0.812E+01   0.114E+03 -.416E+02 -.472E+01   0.230E+01 -.293E+00 -.306E+01
   0.511E+02 0.217E+02 0.609E+02   -.517E+02 -.207E+02 -.661E+02   0.599E+00 -.842E+00 0.481E+01
   0.776E+02 0.162E+00 0.108E+03   -.775E+02 -.157E+00 -.111E+03   -.585E-01 -.323E-02 0.355E+01
   0.558E+02 0.151E+02 0.632E+01   -.543E+02 -.145E+02 -.889E+01   -.133E+01 -.513E+00 0.231E+01
   0.119E+03 0.445E+02 0.122E+03   -.115E+03 -.441E+02 -.120E+03   -.417E+01 -.389E+00 -.209E+01
   -.668E+02 0.152E+02 -.144E+02   0.647E+02 -.148E+02 0.168E+02   0.193E+01 -.390E+00 -.217E+01
   0.199E+02 0.252E+02 0.108E+03   -.217E+02 -.242E+02 -.112E+03   0.166E+01 -.849E+00 0.373E+01
   0.601E+02 0.213E+02 0.880E+02   -.606E+02 -.203E+02 -.919E+02   0.396E+00 -.920E+00 0.372E+01
   -.359E+02 0.220E+02 -.743E+02   0.373E+02 -.209E+02 0.787E+02   -.132E+01 -.103E+01 -.414E+01
   -.814E+02 -.162E+02 -.251E+02   0.787E+02 0.160E+02 0.266E+02   0.250E+01 0.196E+00 -.132E+01
   0.707E+02 -.939E+01 0.210E+02   -.685E+02 0.917E+01 -.233E+02   -.199E+01 0.196E+00 0.215E+01
   -.404E+02 -.142E+02 -.729E+02   0.417E+02 0.136E+02 0.776E+02   -.124E+01 0.521E+00 -.440E+01
   0.197E+02 -.254E+02 0.108E+03   -.215E+02 0.245E+02 -.112E+03   0.167E+01 0.860E+00 0.374E+01
   -.349E+02 0.261E+00 -.808E+02   0.358E+02 -.245E+00 0.851E+02   -.824E+00 -.161E-01 -.405E+01
   -.792E+02 0.196E+00 -.473E+01   0.774E+02 -.190E+00 0.777E+01   0.163E+01 -.309E-02 -.274E+01
   0.619E+02 0.187E+00 0.630E+01   -.608E+02 -.179E+00 -.894E+01   -.102E+01 -.503E-02 0.237E+01
   -.426E+02 -.320E+01 -.725E+02   0.436E+02 0.303E+01 0.774E+02   -.101E+01 0.142E+00 -.452E+01
   0.217E+02 -.322E+02 0.500E+02   -.238E+02 0.307E+02 -.554E+02   0.197E+01 0.130E+01 0.501E+01
   -.534E+02 -.125E+02 -.149E+02   0.523E+02 0.120E+02 0.174E+02   0.996E+00 0.425E+00 -.230E+01
   0.785E+02 -.176E+02 -.534E+01   -.764E+02 0.174E+02 0.203E+01   -.196E+01 0.158E+00 0.298E+01
   -.312E+02 0.135E+00 -.741E+02   0.323E+02 -.130E+00 0.791E+02   -.109E+01 -.332E-02 -.464E+01
   0.390E+02 0.148E+00 0.668E+02   -.399E+02 -.142E+00 -.717E+02   0.803E+00 -.240E-02 0.460E+01
   -.735E+02 0.218E+00 -.147E+02   0.716E+02 -.212E+00 0.167E+02   0.173E+01 -.604E-02 -.177E+01
   0.686E+02 0.287E+00 0.152E+02   -.670E+02 -.276E+00 -.177E+02   -.144E+01 -.889E-02 0.231E+01
   -.361E+02 -.789E+00 -.724E+02   0.374E+02 0.647E+00 0.772E+02   -.121E+01 0.123E+00 -.440E+01
   0.323E+02 -.105E+02 0.901E+02   -.336E+02 0.101E+02 -.945E+02   0.128E+01 0.401E+00 0.413E+01
   -.685E+02 -.729E+00 -.112E+02   0.666E+02 0.720E+00 0.136E+02   0.175E+01 0.973E-03 -.219E+01
[...]
   -.448E+02 -.365E+01 0.607E+02   0.439E+02 0.162E+01 -.575E+02   0.693E+00 0.161E+01 -.280E+01
   0.520E+02 0.256E+00 -.533E+02   -.513E+02 -.552E+00 0.477E+02   -.541E+00 0.164E+00 0.480E+01
   -.112E+03 0.122E+00 0.963E+02   0.124E+03 -.121E+00 -.959E+02   -.986E+01 -.327E-02 -.297E+00
   0.108E+03 0.109E+00 -.917E+02   -.120E+03 -.107E+00 0.912E+02   0.970E+01 -.456E-02 0.356E+00
   -.198E+02 -.210E+01 -.616E+01   0.278E+02 0.204E+01 0.766E+01   -.678E+01 -.802E-01 -.121E+01
   0.192E+02 -.821E+00 0.713E+01   -.279E+02 0.552E+00 -.832E+01   0.729E+01 0.922E-01 0.941E+00
   -.486E+02 0.901E-01 0.548E+02   0.483E+02 -.896E-01 -.495E+02   0.176E+00 -.246E-02 -.452E+01
   0.469E+02 0.158E+00 -.496E+02   -.464E+02 -.160E+00 0.442E+02   -.406E+00 -.115E-02 0.468E+01
   -.102E+03 -.353E+01 0.917E+02   0.113E+03 0.354E+01 -.910E+02   -.974E+01 -.124E+00 -.559E+00
   0.111E+03 -.222E+01 -.954E+02   -.123E+03 0.195E+01 0.948E+02   0.101E+02 0.104E+00 0.428E+00
   -.195E+02 0.212E-01 -.430E+01   0.284E+02 -.106E-01 0.547E+01   -.749E+01 -.159E-01 -.948E+00
   0.192E+02 0.519E-01 0.118E+02   -.274E+02 -.399E-01 -.133E+02   0.693E+01 -.156E-01 0.123E+01
   -.457E+02 -.200E+01 0.589E+02   0.448E+02 0.172E+01 -.534E+02   0.703E+00 0.162E+00 -.471E+01
   0.513E+02 0.413E+01 -.525E+02   -.506E+02 -.471E+01 0.475E+02   -.454E+00 0.397E+00 0.431E+01
   0.465E+01 -.210E+00 -.143E+02   -.959E-12 -.416E-12 0.348E-12   -.403E+01 0.176E+00 0.128E+02

 POSITION                                       TOTAL-FORCE (eV/Angst)
      1.06557     12.12563      4.32570         0.002114      0.009463      0.006281
      4.87401      7.58966      5.80544        -0.004891     -0.013553     -0.008108
      6.98694      7.58446      8.65508        -0.004660     -0.002287     -0.007872
      1.89325      7.58386      7.11886         0.004053      0.006073     -0.008389
      9.96640      7.58412      7.32724         0.000672      0.000886      0.001114
     10.79386      6.06819      4.33687         0.005540     -0.000231     -0.006565
      1.06054      6.07546     10.09478         0.000643     -0.004991      0.010600
      9.97374      4.55634      7.32400         0.002165     -0.000211      0.006587
     10.80628      3.03384      4.34296         0.017261      0.000101     -0.007458
      1.05779      3.03374     10.12731        -0.001786      0.002917      0.014550
      9.96607      7.58411      1.54153        -0.000504     -0.003001     -0.002991
      7.83030     12.12498      5.68390        -0.001765     -0.007496      0.003943
      1.88139      7.60097      1.32360         0.000206      0.004894     -0.006489
      0.99965      3.03404      4.41548        -0.012622      0.000105      0.000271
     10.79194      3.03407     -1.45496        -0.024850     -0.000024     -0.002947
      9.96905      4.55658      1.53353        -0.001239      0.006081     -0.005485
      1.83501      4.60981      1.29145        -0.012793      0.007165      0.018195
      7.04418      4.60615      2.87013         0.000673      0.005323      0.007405
      4.90158      4.55678     -0.03512         0.003233     -0.000823      0.013094
      7.83733      3.03439     -0.13075        -0.010357      0.000554      0.001619
      4.87719      7.59054     -0.00582        -0.003969     -0.008049      0.001075
      4.04352      6.14887      2.96012         0.004767     -0.009083     -0.014406
      6.99354      7.59373      2.86789         0.009238      0.014214      0.009377
      4.03884     12.12120      8.77944         0.001936      0.002210     -0.002205
      4.89828      1.51554      5.85629         0.009390      0.014433      0.002680
      6.99275      1.51589      8.65736        -0.005790     -0.001976     -0.000629
     10.78136     12.12593     -1.44909        -0.012854     -0.004694      0.001573
      9.96905      1.51193      1.53406        -0.002064     -0.004484     -0.006323
      1.83481      1.45786      1.29105        -0.013301     -0.003330      0.019350
      7.04369      1.46284      2.87003        -0.000113     -0.007144      0.008033
      4.90208      1.51234     -0.03513         0.004030      0.003415      0.008682
      4.04350     12.05167      2.95980         0.004235      0.006257     -0.012452
      7.82737     12.12259     -0.12130        -0.003786      0.001050     -0.001125
      1.06554      6.07424      4.32578         0.002792     -0.010250      0.005400
      7.82728      6.07785     -0.12121        -0.003097     -0.001567     -0.000502
      7.84204      3.03433      5.68537        -0.000096     -0.000858      0.011241
     10.78153      6.07386     -1.44913        -0.012207      0.005035      0.001432
      4.89761      4.55345      5.85633         0.008652     -0.017004      0.002163
      6.99355      4.55385      8.65733        -0.007342      0.000260     -0.001164
      1.88617      4.56125      7.14855        -0.000487      0.005572     -0.004129
      7.83015      6.07517      5.68409        -0.001455      0.005146      0.002803
      4.03890      6.07942      8.77956         0.001750     -0.001858     -0.003011
      1.06037     12.12399     10.09476        -0.000341      0.004343      0.008685
     10.79370     12.13125      4.33677         0.005745      0.002363     -0.004799
      9.97344      1.51201      7.32439         0.002382      0.000337      0.006077
      1.88630      1.50667      7.14825        -0.000873     -0.005316     -0.003705
      4.03107      3.03452      8.79088         0.004779      0.000413      0.000291
      1.04465      9.09999      4.32752         0.012439      0.000717     -0.002555
     10.80603      9.09990     -1.45075         0.014187      0.000692     -0.009087
      9.96614     10.61641      1.54129        -0.000868      0.002392     -0.003690
      1.88119     10.59875      1.32371         0.000184     -0.005068     -0.005509
      6.99410     10.60707      2.86780         0.008221     -0.015667      0.009192
      4.87651     10.61062     -0.00605        -0.002433      0.006697      0.004339
      4.03091      9.10031      3.00718        -0.002755     -0.000684      0.004328
      7.82987      9.10026     -0.12924        -0.001543      0.000226     -0.005035
      1.04772      9.09972     10.10163         0.000011      0.000782     -0.002946
     10.81290      9.09976      4.33858         0.007997     -0.000237      0.001482
      9.96651     10.61588      7.32706         0.000638     -0.000112      0.000535
      1.89290     10.61621      7.11920         0.005360     -0.004663     -0.008448
      6.98779     10.61728      8.65506        -0.004260      0.001576     -0.008605
[...]
      5.95280      9.10066      2.84621        -0.004037     -0.000125      0.004538
      3.88222     10.62278      1.57769         0.001829     -0.004341     -0.010983
      7.97243     10.62722      1.29090         0.001082     -0.006305     -0.002489
      1.94648      9.10040      5.91628        -0.002328      0.000300     -0.004149
      9.91864      9.10030      8.53063        -0.001349      0.000234     -0.002388
     11.83089     10.62714      4.35724         0.003381      0.002649     -0.005098
      0.03132     10.62290     10.09052        -0.001655     -0.000445     -0.002363
      9.81529      9.09985      5.91338         0.006488     -0.000606      0.002487
      2.04636      9.10018      8.53262        -0.003998     -0.000037      0.000506
      7.87418     10.62839      4.46392         0.003702      0.003508     -0.000712
      3.98008     10.62444      9.98819        -0.005567     -0.004250     -0.003994
      5.89892      9.10120      5.81170         0.020445     -0.001530     -0.005499
      5.96064      9.10136      8.63388        -0.001720      0.000463      0.001381
      3.88543     10.62447      7.37355        -0.004077      0.003929      0.006868
      7.97235     10.62724      7.07626        -0.001327     -0.003533     -0.002186
    total drift:                                0.023634      0.001167      0.142398

  FREE ENERGIE OF THE ION-ELECTRON SYSTEM (eV)
  free  energy   TOTEN  =     -1520.61702803 eV

  energy  without entropy=    -1520.61702803  energy(sigma->0) =    -1520.61702803

 d Force = 0.6612983E-04[ 0.269E-04, 0.105E-03]  d Energy = 0.8468113E-04-0.186E-04
 d Force = 0.2268518E+00[ 0.226E+00, 0.228E+00]  d Ewald  = 0.2268518E+00-0.912E-07

 reached required accuracy - stopping structural energy minimisation
 writing wavefunctions

 total charge

[...]

 magnetization (x)

# of ion       s       p       d       tot
    1       -0.000  -0.000  -0.000  -0.000
    2       -0.000  -0.000   0.000  -0.000
    3       -0.000  -0.000   0.000  -0.000
    4       -0.000   0.000   0.000   0.000
    5        0.000  -0.000   0.000   0.000
    6       -0.000  -0.000   0.000  -0.000
    7       -0.000   0.000   0.000   0.000
    8       -0.000  -0.000  -0.000  -0.000
    9       -0.000  -0.000   0.000  -0.000
   10        0.000   0.000   0.000   0.000
   11       -0.000  -0.000   0.000  -0.000
   12       -0.000  -0.000   0.000   0.000
   13       -0.000  -0.000   0.000  -0.000
   14        0.001   0.004   0.003   0.007
   15       -0.000  -0.000   0.000  -0.000
   16       -0.000   0.000   0.000   0.000
   17        0.001   0.003   0.001   0.005
   18       -0.000   0.001   0.003   0.004
   19        0.000   0.001   0.001   0.002
   20       -0.000  -0.000  -0.000  -0.000
   21       -0.000   0.000   0.000   0.000
   22       -0.001  -0.002  -0.000  -0.003
   23        0.000   0.000   0.000   0.000
   24       -0.000  -0.000  -0.000  -0.000
   25       -0.001  -0.001   0.002   0.000
   26       -0.000  -0.000   0.000  -0.000
   27       -0.000  -0.000   0.000  -0.000
   28       -0.000   0.000   0.000   0.000
   29        0.001   0.003   0.001   0.005
   30       -0.000   0.002   0.003   0.004
   31        0.000   0.001   0.001   0.002
   32       -0.001  -0.002  -0.000  -0.003
   33        0.000  -0.000   0.000  -0.000
   34       -0.000  -0.000  -0.000  -0.000
   35       -0.000  -0.000   0.000  -0.000
   36       -0.000  -0.000  -0.000  -0.000
   37       -0.000  -0.000   0.000  -0.000
   38       -0.001  -0.001   0.002   0.000
   39       -0.000  -0.000   0.000  -0.000
   40       -0.000   0.000   0.000   0.000
   41       -0.000  -0.000   0.000   0.000
   42       -0.000  -0.000  -0.000  -0.000
   43       -0.000   0.000   0.000   0.000
   44       -0.000  -0.000   0.000  -0.000
   45       -0.000  -0.000  -0.000  -0.000
   46       -0.000   0.000   0.000   0.000
   47       -0.000  -0.000  -0.000  -0.000
   48       -0.000  -0.000   0.000  -0.000
   49        0.000   0.000   0.000   0.000
   50       -0.000  -0.000   0.000  -0.000
   51       -0.000  -0.000   0.000  -0.000
   52        0.000   0.000   0.000   0.000
   53       -0.000   0.000   0.000   0.000
   54       -0.000  -0.000  -0.000  -0.000
   55       -0.000  -0.000   0.000  -0.000
   56       -0.000   0.000   0.000  -0.000
   57       -0.000   0.000   0.000   0.000
   58        0.000   0.000   0.000   0.000
   59       -0.000   0.000   0.000   0.000
   60       -0.000  -0.000   0.000  -0.000
[...]
  146       -0.000   0.000   0.000   0.000
  147       -0.000  -0.000   0.000  -0.000
  148        0.000   0.000   0.000   0.000
  149       -0.000   0.000   0.000   0.000
  150        0.000   0.000   0.000   0.000
  151        0.000   0.000   0.000   0.000
  152       -0.000   0.000   0.000   0.000
  153        0.000   0.000   0.000   0.000
  154        0.000   0.000   0.000   0.000
  155        0.000   0.000   0.000   0.000
  156        0.000   0.000   0.000   0.000
  157        0.000   0.000   0.000   0.000
  158       -0.000  -0.000   0.000  -0.000
  159       -0.000   0.000   0.000   0.000
  160        0.000   0.000   0.000   0.000
tot          0.023   0.608   1.259   1.889