 vasp.5.4.4.18Apr17-6-g9f103f2a35 (build Jun 06 2017 17:32:29) complex

 executed on      LLNL_Quartz_ifc date 2020.03.10  19:15:37

 INCAR:
 POTCAR:   PAW_PBE Ga_d 06Sep2000
 POTCAR:   PAW_PBE Cr_pv 07Sep2000
 POTCAR:   PAW_PBE O 08Apr2002

 POTCAR:   PAW_PBE Ga_d 06Sep2000
   VRHFIN =Ga: s2p1

   TITEL  = PAW_PBE Ga_d 06Sep2000
   POMASS =   69.723; ZVAL   =   13.000    mass and valenz
   ENMAX  =  282.697; ENMIN  =  212.022 eV
   QCUT   =   -4.558; QGAM   =    9.117    optimization parameters

   Description
     l     E      TYP  RCUT    TYP  RCUT
     2   .000     23  2.300
     2  -.400     23  2.300
     0   .000     23  2.300
     0   .000     23  2.300
     1   .000     23  2.300
     1   .000     23  2.300
     3  -.100      7  2.300

 POTCAR:   PAW_PBE Cr_pv 07Sep2000
   VRHFIN =Cr : p6d5s1

   TITEL  = PAW_PBE Cr_pv 07Sep2000
   POMASS =   51.996; ZVAL   =   12.000    mass and valenz
   ENMAX  =  265.683; ENMIN  =  199.262 eV
   QCUT   =   -4.419; QGAM   =    8.838    optimization parameters

[...]

 POTCAR:   PAW_PBE O 08Apr2002
   VRHFIN =O: s2p4

   TITEL  = PAW_PBE O 08Apr2002
   POMASS =   16.000; ZVAL   =    6.000    mass and valenz
   ENMAX  =  400.000; ENMIN  =  300.000 eV
   QCUT   =   -5.520; QGAM   =   11.041    optimization parameters

   Description
     l     E      TYP  RCUT    TYP  RCUT
     0   .000     23  1.200
     0  -.700     23  1.200
     1   .000     23  1.520
     1   .600     23  1.520
     2   .000      7  1.500

 Optimization of the real space projectors (new method)

 maximal supplied QI-value         = 16.25
 optimisation between [QCUT,QGAM] = [ 10.24, 20.48] = [ 29.35,117.42] Ry
 Optimized for a Real-space Cutoff    1.38 Angstroem

   l    n(q)    QCUT    max X(q) W(low)/X(q) W(high)/X(q)  e(spline)
   2      7    10.239     6.328    0.33E-04    0.68E-04    0.30E-07
   2      7    10.239     9.625    0.20E-03    0.23E-03    0.80E-07
   0      8    10.239     9.711    0.17E-04    0.17E-04    0.13E-07
   0      8    10.239    32.764    0.56E-04    0.14E-03    0.62E-07
   1      8    10.239     7.413    0.78E-04    0.28E-04    0.38E-07
   1      8    10.239    31.472    0.43E-03    0.30E-03    0.73E-07
 Optimization of the real space projectors (new method)

[...]

   l    n(q)    QCUT    max X(q) W(low)/X(q) W(high)/X(q)  e(spline)
   1      9    10.239     3.725    0.12E-04    0.42E-05    0.32E-07
   1      9    10.239     4.899    0.39E-04    0.80E-04    0.16E-06
   2      9    10.239     4.046    0.87E-05    0.38E-04    0.55E-07
   2      9    10.239    59.627    0.23E-03    0.52E-03    0.25E-06
   0     10    10.239    23.955    0.21E-04    0.25E-05    0.94E-08
   0     10    10.239    65.137    0.37E-04    0.23E-05    0.66E-07
 Optimization of the real space projectors (new method)

 maximal supplied QI-value         = 24.76
 optimisation between [QCUT,QGAM] = [ 10.15, 20.30] = [ 28.85,115.39] Ry
 Optimized for a Real-space Cutoff    1.30 Angstroem

   l    n(q)    QCUT    max X(q) W(low)/X(q) W(high)/X(q)  e(spline)
   0      8    10.150     4.192    0.55E-04    0.58E-04    0.78E-07
   0      8    10.150     8.473    0.46E-03    0.68E-03    0.23E-06
   1      7    10.150     2.474    0.11E-03    0.93E-04    0.33E-07
   1      7    10.150     3.912    0.46E-03    0.50E-03    0.15E-06
 PAW_PBE Ga_d 06Sep2000                 :
 PAW_PBE Cr_pv 07Sep2000                :
 PAW_PBE O 08Apr2002                    :

 POSCAR: Ga Cr  O
  positions in direct lattice
  velocities in cartesian coordinates
 exchange correlation table for  LEXCH =        8
   RHO(1)=    0.500       N(1)  =     2000
   RHO(2)=  100.500       N(2)  =     4000

 ion  position               nearest neighbor table
   1  0.090  1.000  0.396- 140 1.82  99 1.83 108 1.83 106 1.87
   2  0.411  0.625  0.604-  85 1.83 157 1.83  72 1.83 121 1.86
   3  0.589  0.625  0.896-  86 1.83  71 1.83 158 1.83 136 1.86
   4  0.160  0.625  0.656-  78 1.93 149 1.94  80 1.95 121 2.01  75 2.07 154 2.08
   5  0.840  0.625  0.844-  77 1.93  79 1.94 150 1.94 136 2.01  76 2.08 153 2.08
   6  0.910  0.500  0.604-  90 1.83  78 1.83 118 1.83  76 1.86
   7  0.090  0.500  0.896-  77 1.83 117 1.83  68 1.83  75 1.86
   8  0.841  0.375  0.844- 117 1.93  79 1.93 119 1.94  65 2.02  76 2.07 116 2.08
   9  0.912  0.250  0.604- 131 1.83 118 1.83  97 1.83 116 1.86
  10  0.089  0.250  0.896- 117 1.83  96 1.83 132 1.84  93 1.86
  11  0.840  0.625  0.344-  89 1.93 138 1.94  90 1.94  81 2.01  88 2.08 141 2.08
  12  0.660  0.000  0.656- 155 1.93 114 1.94 102 1.95  95 2.01 160 2.06 133 2.07
  13  0.159  0.625  0.155-  70 1.93 137 1.93  68 1.94  82 2.01 142 2.08  87 2.10
  14  0.089  0.250  0.398- 120 1.82 129 1.83 108 1.83 127 1.90
  15  0.911  0.250  0.103- 119 1.83 130 1.84 109 1.84 128 1.86
  16  0.841  0.375  0.344-  90 1.93 131 1.94 129 1.94  92 2.02  88 2.07 128 2.08
  17  0.159  0.376  0.155- 130 1.92  68 1.92 132 1.93 122 2.04  87 2.06 127 2.12
  18  0.590  0.377  0.396- 135 1.81  83 1.82  92 1.84 123 1.89
  19  0.411  0.375  0.103-  91 1.82  69 1.82 124 1.83 122 1.89
  20  0.660  0.250  0.155- 126 1.93 105 1.93 124 1.94 128 2.00  92 2.08 100 2.08
  21  0.411  0.625  0.104-  73 1.82  69 1.83 145 1.83  82 1.86
  22  0.340  0.502  0.342-  83 1.92  85 1.92  87 1.99 125 2.01  82 2.04 122 2.08
  23  0.589  0.625  0.396-  74 1.82 146 1.83  83 1.84  81 1.86
  24  0.341  1.000  0.844- 115 1.93 156 1.93 113 1.94  94 2.01 159 2.07 134 2.08
  25  0.412  0.126  0.606- 114 1.82  84 1.82 134 1.85 104 1.86
  26  0.589  0.125  0.896- 105 1.83 115 1.83  67 1.83 133 1.86
  27  0.910  0.000  0.104-  98 1.82 139 1.83 109 1.83 107 1.86
  28  0.841  0.125  0.344- 110 1.93 131 1.94 108 1.94 100 2.02 107 2.07 128 2.08
  29  0.159  0.124  0.154- 109 1.92 111 1.92 132 1.93 101 2.04 106 2.06 127 2.12
  30  0.590  0.123  0.396- 102 1.81 103 1.82 100 1.84 123 1.89
  31  0.412  0.125  0.103- 113 1.82 112 1.82 124 1.83 101 1.89
  32  0.340  0.999  0.342- 103 1.92 144 1.92 106 1.99 104 2.02 147 2.04 101 2.08
  33  0.660  1.000  0.156- 143 1.93 105 1.93 112 1.94 107 2.01 148 2.07 100 2.08
  34  0.090  0.500  0.396-  89 1.82  80 1.83 129 1.83  87 1.87
  35  0.659  0.500  0.156-  86 1.93 126 1.93  69 1.93  88 2.01  81 2.07  92 2.08
  36  0.661  0.250  0.657-  84 1.93 135 1.94 102 1.94 116 1.99 133 2.07  65 2.07
  37  0.910  0.500  0.104-  79 1.82  70 1.83 130 1.83  88 1.86
  38  0.412  0.374  0.606-  72 1.82  84 1.82  66 1.85 125 1.86
  39  0.589  0.375  0.896- 126 1.83  71 1.83  67 1.83  65 1.86
  40  0.159  0.375  0.656- 118 1.93  80 1.94 120 1.94  66 2.01  75 2.06  93 2.08
  41  0.660  0.500  0.656-  74 1.93  72 1.94 135 1.95  76 2.01 136 2.06  65 2.06
  42  0.341  0.500  0.844-  71 1.93  73 1.93  91 1.94  75 2.01 121 2.07  66 2.08
  43  0.090  1.000  0.896- 152 1.83  96 1.83 111 1.83  94 1.86
  44  0.910  1.000  0.604- 110 1.83 151 1.83  97 1.83  95 1.86
  45  0.841  0.125  0.844-  96 1.93  98 1.93 119 1.94 133 2.02  95 2.07 116 2.08
  46  0.159  0.125  0.656-  97 1.93  99 1.94 120 1.94 134 2.01  94 2.06  93 2.08
  47  0.340  0.250  0.845-  67 1.94  91 1.94 113 1.94  93 2.00  66 2.08 134 2.08
  48  0.089  0.750  0.396- 149 1.83  89 1.83 140 1.83 142 1.87
  49  0.911  0.750  0.104- 150 1.83 139 1.84  70 1.84 141 1.87
  50  0.840  0.875  0.344- 140 1.93 138 1.94 110 1.94 148 2.01 107 2.08 141 2.08
  51  0.159  0.875  0.155- 139 1.93 137 1.93 111 1.94 147 2.01 142 2.08 106 2.10
  52  0.589  0.875  0.396- 155 1.82 146 1.83 103 1.84 148 1.86
  53  0.411  0.875  0.104- 156 1.82 145 1.83 112 1.83 147 1.86
  54  0.340  0.750  0.345- 146 1.93  85 1.95 144 1.95 142 2.00  82 2.09 147 2.09
  55  0.660  0.750  0.155- 145 1.93  86 1.94 143 1.94 141 2.00 148 2.09  81 2.09
  56  0.089  0.750  0.896- 137 1.83  77 1.83 152 1.83 154 1.86
  57  0.912  0.750  0.604- 138 1.83  78 1.83 151 1.83 153 1.86
  58  0.840  0.875  0.844- 152 1.93 150 1.94  98 1.94 160 2.01  95 2.08 153 2.08
  59  0.160  0.875  0.656- 151 1.93 149 1.94  99 1.95 159 2.01  94 2.07 154 2.08
  60  0.589  0.875  0.896- 143 1.83 158 1.83 115 1.83 160 1.86
[...]
 146  0.502  0.750  0.372-  52 1.83  23 1.83  54 1.93
 147  0.328  0.876  0.219-  53 1.86  51 2.01  32 2.04  54 2.09
 148  0.672  0.876  0.281-  52 1.86  50 2.01  33 2.07  55 2.09
 149  0.164  0.750  0.553-  48 1.83  59 1.94   4 1.94
 150  0.836  0.750  0.947-  49 1.83  58 1.94   5 1.94
 151  0.997  0.876  0.628-  44 1.83  57 1.83  59 1.93
 152  0.003  0.876  0.873-  43 1.83  56 1.83  58 1.93
 153  0.828  0.750  0.719-  57 1.86  63 2.00   5 2.08  58 2.08
 154  0.172  0.750  0.781-  56 1.86  62 2.01  59 2.08   4 2.08
 155  0.664  0.876  0.553-  52 1.82  12 1.93  63 1.94
 156  0.336  0.876  0.947-  53 1.82  24 1.93  62 1.94
 157  0.497  0.750  0.627-  61 1.83   2 1.83  63 1.94
 158  0.503  0.750  0.872-  60 1.83   3 1.83  62 1.93
 159  0.328  0.876  0.719-  61 1.86  59 2.01  24 2.07  62 2.08
 160  0.672  0.876  0.780-  60 1.86  58 2.01  12 2.06  63 2.08

  LATTYP: Found a simple monoclinic cell.
 ALAT       =    14.6889751464
 B/A-ratio  =     0.8259161174
 C/A-ratio  =     1.5972413798
 COS(beta)  =    -0.9171837574

  Lattice vectors:

 A1 = ( -11.8609006218,   0.0000000000,  -8.6651617002)
 A2 = (   0.0000000000, -12.1318613217,   0.0000000000)
 A3 = (  11.8609006218,   0.0000000000,  20.2429474736)

Analysis of symmetry for initial positions (statically):
 Subroutine PRICEL returns:
 Original cell was already a primitive cell.

 Routine SETGRP: Setting up the symmetry group for a
 simple monoclinic supercell.

 Subroutine GETGRP returns: Found  1 space group operations
 (whereof  1 operations were pure point group operations)
 out of a pool of  4 trial point group operations.

The static configuration has the point symmetry C_1 .

Analysis of symmetry for dynamics (positions and initial velocities):
 Subroutine PRICEL returns:
 Original cell was already a primitive cell.

[...]

The dynamic configuration has the point symmetry C_1 .

Analysis of structural, dynamic, and magnetic symmetry:
 Subroutine PRICEL returns:
 Original cell was already a primitive cell.

 Routine SETGRP: Setting up the symmetry group for a
 simple monoclinic supercell.

 Subroutine GETGRP returns: Found  1 space group operations
 (whereof  1 operations were pure point group operations)
 out of a pool of  4 trial point group operations.

The magnetic configuration has the point symmetry C_1 .

 Subroutine INISYM returns: Found  1 space group operations
 (whereof  1 operations are pure point group operations),
 and found     1 'primitive' translations

 KPOINTS: KPOINTS created by Atomic Simulation Env
  k-points in reciprocal lattice
Space group operators:
 irot       det(A)        alpha          n_x          n_y          n_z        tau_x        tau_y        tau_z
    1     1.000000     0.000000     1.000000     0.000000     0.000000     0.000000     0.000000     0.000000

 Subroutine IBZKPT_HF returns following result:

 Found      2 k-points in 1st BZ
 the following      2 k-points will be used (e.g. in the exchange kernel)
 Following reciprocal coordinates:   # in IRBZ
  0.250000  0.250000  0.250000    0.50000000   1 t-inv F
 -0.250000 -0.250000 -0.250000    0.50000000   1 t-inv T

 SYSTEM =  unknown system
 POSCAR =  Ga Cr  O

 Startparameter for this run:
[...]
   -.751E+02 0.232E+00 -.193E+02   0.728E+02 -.222E+00 0.210E+02   0.212E+01 -.909E-02 -.157E+01
   -.377E+02 -.552E+01 -.725E+02   0.389E+02 0.544E+01 0.774E+02   -.113E+01 0.781E-01 -.456E+01
   0.409E+02 -.279E+01 0.779E+02   -.417E+02 0.213E+01 -.821E+02   0.735E+00 0.610E+00 0.399E+01
   0.362E+02 0.335E+01 0.630E+02   -.377E+02 -.285E+01 -.682E+02   0.141E+01 -.463E+00 0.492E+01
   -.861E+02 0.276E+00 0.136E+02   0.834E+02 -.264E+00 -.877E+01   0.249E+01 -.122E-01 -.436E+01
   0.606E+02 0.231E+00 0.885E+01   -.590E+02 -.224E+00 -.114E+02   -.143E+01 -.686E-02 0.229E+01
   -.393E+02 0.709E+01 -.727E+02   0.406E+02 -.681E+01 0.776E+02   -.128E+01 -.269E+00 -.457E+01
   0.191E+02 0.248E+02 0.530E+02   -.221E+02 -.236E+02 -.588E+02   0.278E+01 -.117E+01 0.544E+01
   -.583E+02 0.335E+02 -.184E+02   0.589E+02 -.298E+02 0.208E+02   -.523E+00 -.337E+01 -.217E+01
   0.870E+02 0.450E+01 0.122E+00   -.839E+02 -.433E+01 -.402E+01   -.285E+01 -.156E+00 0.351E+01
   0.361E+02 0.233E+00 0.702E+02   -.369E+02 -.219E+00 -.752E+02   0.739E+00 -.125E-01 0.470E+01
   0.733E+02 -.392E+01 0.868E+01   -.714E+02 0.380E+01 -.115E+02   -.178E+01 0.121E+00 0.249E+01
   -.309E+02 0.393E+02 -.936E+02   0.320E+02 -.357E+02 0.963E+02   -.994E+00 -.334E+01 -.250E+01
   -.698E+02 -.462E+01 -.134E+02   0.685E+02 0.501E+01 0.160E+02   0.118E+01 -.335E+00 -.229E+01
   -.368E+02 -.517E+01 -.721E+02   0.381E+02 0.459E+01 0.768E+02   -.124E+01 0.543E+00 -.441E+01
   0.917E+02 0.721E+01 0.422E+02   -.879E+02 -.697E+01 -.416E+02   -.349E+01 -.214E+00 -.560E+00
   -.744E+02 -.574E+01 -.145E+02   0.723E+02 0.542E+01 0.170E+02   0.195E+01 0.299E+00 -.222E+01
   0.685E+02 -.102E+01 0.122E+02   -.666E+02 0.748E+00 -.147E+02   -.178E+01 0.245E+00 0.226E+01
   -.392E+02 -.707E+01 -.727E+02   0.405E+02 0.680E+01 0.776E+02   -.129E+01 0.261E+00 -.457E+01
   0.191E+02 -.249E+02 0.529E+02   -.220E+02 0.237E+02 -.587E+02   0.278E+01 0.116E+01 0.544E+01
   -.578E+02 -.336E+02 -.186E+02   0.585E+02 0.298E+02 0.210E+02   -.571E+00 0.338E+01 -.216E+01
   0.868E+02 -.494E+01 0.263E+00   -.838E+02 0.475E+01 -.416E+01   -.282E+01 0.177E+00 0.351E+01
   -.313E+02 -.410E+02 -.960E+02   0.324E+02 0.372E+02 0.984E+02   -.968E+00 0.352E+01 -.231E+01
   0.366E+02 -.368E+01 0.689E+02   -.376E+02 0.319E+01 -.740E+02   0.970E+00 0.456E+00 0.478E+01
   -.816E+02 0.426E+01 -.868E+01   0.793E+02 -.428E+01 0.116E+02   0.211E+01 0.275E-01 -.266E+01
   0.365E+02 0.314E+01 0.688E+02   -.376E+02 -.268E+01 -.739E+02   0.970E+00 -.436E+00 0.479E+01
   0.369E+02 0.261E+00 0.846E+02   -.377E+02 -.253E+00 -.888E+02   0.725E+00 -.571E-02 0.397E+01
   0.686E+02 0.688E+00 0.121E+02   -.667E+02 -.412E+00 -.146E+02   -.178E+01 -.249E+00 0.227E+01
   0.912E+02 -.630E+01 0.410E+02   -.875E+02 0.612E+01 -.405E+02   -.341E+01 0.176E+00 -.391E+00
   -.745E+02 0.559E+01 -.146E+02   0.724E+02 -.529E+01 0.171E+02   0.197E+01 -.289E+00 -.222E+01
   0.361E+02 0.690E+01 0.812E+02   -.376E+02 -.649E+01 -.857E+02   0.143E+01 -.385E+00 0.419E+01
   0.405E+02 0.216E+01 0.778E+02   -.413E+02 -.153E+01 -.821E+02   0.760E+00 -.575E+00 0.399E+01
   -.368E+02 0.488E+01 -.721E+02   0.381E+02 -.429E+01 0.768E+02   -.124E+01 -.542E+00 -.441E+01
   -.740E+02 -.840E+00 -.180E+02   0.714E+02 0.824E+00 0.200E+02   0.238E+01 0.174E-01 -.173E+01
   0.748E+02 0.301E+00 0.159E+02   -.726E+02 -.330E+00 -.183E+02   -.207E+01 0.233E-01 0.217E+01
   -.382E+02 -.678E+01 -.722E+02   0.396E+02 0.634E+01 0.770E+02   -.134E+01 0.410E+00 -.449E+01
   0.358E+02 -.677E+01 0.813E+02   -.373E+02 0.637E+01 -.857E+02   0.145E+01 0.380E+00 0.420E+01
   -.345E+02 0.445E+00 -.769E+02   0.356E+02 -.418E+00 0.816E+02   -.968E+00 -.243E-01 -.441E+01
   -.719E+02 0.120E+00 -.892E+01   0.702E+02 -.113E+00 0.117E+02   0.155E+01 -.552E-02 -.249E+01
   0.685E+02 0.255E+00 0.102E+02   -.671E+02 -.245E+00 -.128E+02   -.131E+01 -.732E-02 0.231E+01
   -.378E+02 0.554E+01 -.725E+02   0.390E+02 -.546E+01 0.773E+02   -.113E+01 -.756E-01 -.456E+01
   0.362E+02 -.374E+01 0.627E+02   -.378E+02 0.320E+01 -.680E+02   0.144E+01 0.506E+00 0.494E+01
   -.698E+02 0.419E+01 -.135E+02   0.685E+02 -.462E+01 0.161E+02   0.118E+01 0.374E+00 -.230E+01
   0.735E+02 0.372E+01 0.891E+01   -.715E+02 -.362E+01 -.117E+02   -.181E+01 -.940E-01 0.250E+01
   -.322E+02 0.257E-01 -.770E+02   0.333E+02 -.467E-01 0.816E+02   -.105E+01 0.202E-01 -.430E+01
   0.326E+02 0.168E+00 0.695E+02   -.337E+02 -.171E+00 -.745E+02   0.102E+01 0.473E-02 0.469E+01
   -.682E+02 0.207E+00 -.126E+02   0.664E+02 -.201E+00 0.148E+02   0.164E+01 -.476E-02 -.200E+01
   0.719E+02 0.191E+00 0.121E+02   -.703E+02 -.181E+00 -.146E+02   -.153E+01 -.579E-02 0.228E+01
   -.360E+02 0.636E+01 -.716E+02   0.373E+02 -.631E+01 0.764E+02   -.125E+01 -.567E-01 -.452E+01
   0.380E+02 0.192E+01 0.795E+02   -.393E+02 -.207E+01 -.840E+02   0.118E+01 0.134E+00 0.422E+01
   -.744E+02 0.642E+01 -.118E+02   0.724E+02 -.632E+01 0.142E+02   0.185E+01 -.105E+00 -.215E+01
[...]
   -.469E+02 0.689E+01 0.547E+02   0.463E+02 -.787E+01 -.500E+02   0.429E+00 0.739E+00 -.404E+01
   0.471E+02 0.512E+01 -.531E+02   -.464E+02 -.538E+01 0.475E+02   -.528E+00 0.134E+00 0.475E+01
   -.109E+03 0.286E-01 0.934E+02   0.121E+03 -.314E-01 -.929E+02   -.973E+01 -.409E-04 -.390E+00
   0.108E+03 0.120E+00 -.917E+02   -.120E+03 -.121E+00 0.913E+02   0.963E+01 -.168E-02 0.343E+00
   -.177E+02 0.109E+01 -.940E+01   0.258E+02 -.108E+01 0.109E+02   -.687E+01 -.142E+00 -.124E+01
   0.199E+02 0.136E+01 0.963E+01   -.283E+02 -.137E+01 -.110E+02   0.708E+01 -.120E+00 0.111E+01
   -.482E+02 0.530E-01 0.536E+02   0.478E+02 -.558E-01 -.483E+02   0.284E+00 0.190E-02 -.457E+01
   0.492E+02 0.144E+00 -.513E+02   -.486E+02 -.149E+00 0.459E+02   -.365E+00 0.133E-02 0.464E+01
   -.108E+03 0.285E+01 0.913E+02   0.120E+03 -.289E+01 -.906E+02   -.976E+01 -.783E-01 -.487E+00
   0.109E+03 0.256E+01 -.926E+02   -.121E+03 -.265E+01 0.921E+02   0.990E+01 -.440E-01 0.385E+00
   -.193E+02 -.547E-01 -.842E+01   0.278E+02 0.598E-01 0.978E+01   -.718E+01 -.990E-02 -.110E+01
   0.175E+02 0.383E-01 0.119E+02   -.257E+02 -.278E-01 -.134E+02   0.693E+01 -.160E-01 0.125E+01
   -.477E+02 0.362E+01 0.550E+02   0.470E+02 -.384E+01 -.494E+02   0.513E+00 0.107E+00 -.474E+01
   0.479E+02 0.582E+01 -.526E+02   -.472E+02 -.612E+01 0.473E+02   -.497E+00 0.166E+00 0.450E+01
   0.871E+01 -.763E+00 -.654E+01   0.533E-12 0.657E-13 -.867E-12   -.754E+01 0.685E+00 0.572E+01

 POSITION                                       TOTAL-FORCE (eV/Angst)
      1.06338     12.13117      4.32732         0.006147      0.005456      0.002595
      4.87129      7.58354      5.80007        -0.008608      0.000946      0.001696
      6.98848      7.58385      8.65646        -0.007424     -0.002072     -0.007667
      1.89476      7.58138      7.12519         0.003900      0.001278      0.000861
      9.96863      7.58159      7.32670        -0.005064      0.001362     -0.002924
     10.79533      6.06741      4.33875         0.003382      0.002728      0.006386
      1.06860      6.06830     10.11053         0.002202     -0.000972      0.004407
      9.97234      4.55540      7.32469        -0.005018     -0.000908     -0.000323
     10.81141      3.03378      4.33651         0.004938      0.000602      0.001783
      1.05244      3.03372     10.11741         0.000314      0.000385      0.009458
      9.96605      7.58160      1.53943        -0.002267     -0.001586      0.002540
      7.82271     -0.00009      5.67767         0.004018     -0.002564      0.003888
      1.89103      7.58718      1.33163         0.004674     -0.001609     -0.004828
      1.05626      3.03423      4.34268         0.011443      0.000605     -0.003316
     10.80185      3.03413     -1.45441         0.005187      0.000917     -0.006614
      9.97205      4.55215      1.53508         0.003143     -0.001808     -0.001278
      1.88049      4.56428      1.32715         0.005972     -0.003400      0.005046
      7.00286      4.57288      2.86548         0.009512      0.013795      0.005583
      4.88038      4.55100     -0.00316        -0.011819     -0.000497     -0.008809
      7.83079      3.03478     -0.13015         0.000249     -0.000889     -0.009111
      4.87423      7.58510      0.00245        -0.016521     -0.004701     -0.006295
      4.03638      6.08509      2.97425        -0.010786      0.000602      0.003273
      6.98618      7.58561      2.86934        -0.004736      0.006908      0.010218
      4.03940     12.12850      8.78025        -0.006379      0.000189      0.000585
      4.88386      1.52649      5.82214         0.000677     -0.001215      0.008077
      6.99062      1.51633      8.65733        -0.005527     -0.000966     -0.005471
     10.79191      0.00146     -1.44840         0.003296      0.003566     -0.010341
      9.97212      1.51644      1.53533         0.003564      0.002219     -0.001760
      1.88029      1.50369      1.32703         0.006259      0.003851      0.005065
      7.00249      1.49673      2.86492         0.007133     -0.011920      0.008575
      4.88162      1.51861     -0.00339        -0.012625     -0.000265     -0.009908
      4.03615     12.11361      2.97138        -0.010178      0.000149      0.003278
      7.82258     12.12939     -0.11749        -0.000696     -0.000527     -0.004417
      1.06371      6.06869      4.32697         0.005443     -0.005914      0.002348
      7.82237      6.07137     -0.11745         0.000264     -0.000790     -0.004440
      7.83781      3.03414      5.67860         0.006010      0.000407      0.003308
     10.79218      6.06640     -1.44840         0.003660     -0.002984     -0.007595
      4.88283      4.54288      5.82046        -0.000552      0.002609      0.007927
      6.99143      4.55376      8.65716        -0.005010     -0.000245     -0.005632
      1.88940      4.55487      7.13409         0.005729     -0.000032      0.007881
      7.82278      6.06801      5.67773         0.004257      0.003350      0.004150
      4.03966      6.07197      8.78010        -0.006665     -0.000394      0.001103
      1.06838     12.13080     10.11074         0.001890      0.001696      0.003396
     10.79499     12.13178      4.33875         0.003446     -0.002459      0.006367
      9.97222      1.51269      7.32495        -0.005372      0.001346     -0.000491
      1.88891      1.51306      7.13420         0.006668      0.000928      0.007457
      4.03404      3.03472      8.79076        -0.006550      0.000153      0.006881
      1.04968      9.09994      4.32827         0.001916     -0.000273      0.005034
     10.81033      9.09977     -1.45013         0.005362      0.000560     -0.014161
      9.96617     10.61867      1.53916        -0.002655      0.001368      0.002812
      1.89024     10.61211      1.33174         0.005318      0.001435     -0.005226
      6.98684     10.61566      2.86942        -0.005951     -0.007508      0.010416
      4.87360     10.61623      0.00215        -0.016071      0.003052     -0.006961
      4.03308      9.09992      3.00529        -0.017377     -0.000632     -0.005668
      7.82613      9.10058     -0.12619        -0.004981     -0.001264     -0.005934
      1.05103      9.09957     10.11092        -0.000338      0.000272     -0.004623
     10.81269      9.09962      4.33746         0.004559      0.000261      0.009011
      9.96866     10.61820      7.32642        -0.004852     -0.000635     -0.002769
      1.89448     10.61836      7.12552         0.004928     -0.000749      0.000665
      6.98937     10.61817      8.65638        -0.008452      0.000249     -0.007319
[...]
      5.95561      9.10109      2.84807        -0.004743     -0.000672      0.000534
      3.88459     10.62817      1.58254        -0.004443      0.000161     -0.000258
      7.97107     10.62721      1.29332         0.002418     -0.003564     -0.003078
      1.94533      9.10018      5.92221        -0.002373      0.000268     -0.017889
      9.92132      9.10035      8.52898         0.000365      0.000437      0.014675
     11.83110     10.62582      4.36015        -0.004906      0.002043     -0.003238
      0.03473     10.62540     10.09312        -0.006680      0.001874     -0.001514
      9.81630      9.09963      5.91357        -0.002318      0.000851     -0.007440
      2.04614      9.10026      8.53720        -0.003020     -0.000164      0.000734
      7.87250     10.62857      4.46577        -0.004896     -0.002710     -0.016090
      3.98208     10.62511      9.98798        -0.000499     -0.002048      0.012171
      5.89619      9.10098      5.81348        -0.004050     -0.000744     -0.005779
      5.96212      9.10157      8.63501         0.002037     -0.000738     -0.001015
      3.88645     10.62310      7.37452        -0.003968      0.000723     -0.006511
      7.97248     10.62528      7.07654        -0.001688     -0.003105      0.003319
    total drift:                                0.362262      0.012379      0.122238

  FREE ENERGIE OF THE ION-ELECTRON SYSTEM (eV)
  free  energy   TOTEN  =     -1524.51058557 eV

  energy  without entropy=    -1524.51058557  energy(sigma->0) =    -1524.51058557

 d Force = 0.1635986E-04[-0.777E-05, 0.405E-04]  d Energy = 0.1298518E-04 0.337E-05
 d Force = 0.2167187E-01[ 0.213E-01, 0.220E-01]  d Ewald  = 0.2167501E-01-0.314E-05

 reached required accuracy - stopping structural energy minimisation
 writing wavefunctions

 total charge

[...]

 magnetization (x)

# of ion       s       p       d       tot
    1        0.000   0.000   0.000   0.000
    2       -0.000   0.000  -0.000   0.000
    3        0.000   0.000   0.000   0.000
    4        0.000   0.000  -0.000   0.000
    5        0.000  -0.000  -0.000   0.000
    6        0.000   0.000  -0.000   0.000
    7        0.000   0.000  -0.000   0.000
    8        0.000   0.000   0.000   0.000
    9        0.000   0.000   0.000   0.000
   10        0.000  -0.000  -0.000  -0.000
   11        0.000   0.000  -0.000   0.000
   12        0.000  -0.000  -0.000   0.000
   13       -0.000   0.000   0.000   0.000
   14        0.000  -0.000  -0.000  -0.000
   15        0.000   0.000   0.000   0.000
   16        0.000   0.000  -0.000   0.000
   17        0.001   0.001   0.000   0.003
   18        0.002   0.003   0.000   0.005
   19        0.000   0.000  -0.000   0.001
   20        0.000   0.000   0.000   0.000
   21       -0.000   0.000   0.000   0.000
   22        0.003   0.003   0.001   0.006
   23        0.000   0.000   0.000   0.000
   24        0.000   0.000   0.000   0.000
   25        0.002   0.003   0.000   0.005
   26        0.000   0.000   0.000   0.000
   27        0.000  -0.000  -0.000  -0.000
   28        0.000   0.000  -0.000   0.000
   29        0.001   0.001   0.000   0.003
   30        0.002   0.003   0.000   0.005
   31        0.000   0.001  -0.000   0.001
   32        0.003   0.003   0.001   0.007
   33        0.000  -0.000  -0.000  -0.000
   34        0.000  -0.000   0.000   0.000
   35        0.000  -0.000  -0.000  -0.000
   36        0.000   0.000   0.000   0.000
   37        0.000  -0.000  -0.000  -0.000
   38        0.002   0.003   0.001   0.005
   39        0.000   0.000   0.000   0.000
   40        0.000   0.000  -0.000   0.000
   41        0.000  -0.000  -0.000   0.000
   42        0.000   0.000   0.000   0.000
   43        0.000   0.000  -0.000   0.000
   44        0.000   0.000  -0.000   0.000
   45        0.000   0.000   0.000   0.000
   46        0.000   0.000  -0.000   0.000
   47        0.000  -0.000  -0.000   0.000
   48        0.000  -0.000   0.000   0.000
   49        0.000   0.000   0.000   0.000
   50        0.000   0.000  -0.000   0.000
   51       -0.000  -0.000   0.000   0.000
   52        0.000   0.000   0.000   0.000
   53       -0.000   0.000   0.000  -0.000
   54        0.000  -0.000  -0.000   0.000
   55        0.000   0.000  -0.000   0.000
   56        0.000   0.000   0.000   0.000
   57        0.000  -0.000  -0.000  -0.000
   58        0.000  -0.000  -0.000   0.000
   59        0.000   0.000  -0.000  -0.000
   60        0.000   0.000   0.000   0.000
[...]
  146        0.000   0.000   0.000   0.000
  147       -0.000   0.000   0.000   0.000
  148        0.000  -0.000   0.000   0.000
  149        0.000  -0.000   0.000  -0.000
  150        0.000   0.000   0.000   0.000
  151       -0.000  -0.000   0.000  -0.000
  152       -0.000  -0.000   0.000  -0.000
  153        0.000  -0.000   0.000  -0.000
  154       -0.000  -0.000   0.000  -0.000
  155        0.000   0.000   0.000   0.000
  156        0.000   0.000   0.000   0.000
  157       -0.000  -0.000   0.000  -0.000
  158        0.000   0.000   0.000   0.000
  159        0.000   0.000   0.000   0.000
  160        0.000  -0.000   0.000  -0.000
tot          0.027  -0.081   1.986   1.931