 vasp.5.4.4.18Apr17-6-g9f103f2a35 (build Jun 06 2017 17:32:29) complex

 executed on      LLNL_Quartz_ifc date 2021.09.07  08:09:37

 INCAR:
 POTCAR:   PAW_PBE Ga_d 06Sep2000
 POTCAR:   PAW_PBE Ir 06Sep2000
 POTCAR:   PAW_PBE O 08Apr2002

 POTCAR:   PAW_PBE Ga_d 06Sep2000
   VRHFIN =Ga: s2p1

   TITEL  = PAW_PBE Ga_d 06Sep2000
   POMASS =   69.723; ZVAL   =   13.000    mass and valenz
   ENMAX  =  282.697; ENMIN  =  212.022 eV
   QCUT   =   -4.558; QGAM   =    9.117    optimization parameters

   Description
     l     E      TYP  RCUT    TYP  RCUT
     2   .000     23  2.300
     2  -.400     23  2.300
     0   .000     23  2.300
     0   .000     23  2.300
     1   .000     23  2.300
     1   .000     23  2.300
     3  -.100      7  2.300

 POTCAR:   PAW_PBE Ir 06Sep2000
   VRHFIN =Ir: s1d8

   TITEL  = PAW_PBE Ir 06Sep2000
   POMASS =  192.220; ZVAL   =    9.000    mass and valenz
   ENMAX  =  210.870; ENMIN  =  158.153 eV
   QCUT   =   -3.937; QGAM   =    7.874    optimization parameters

[...]

 POTCAR:   PAW_PBE O 08Apr2002
   VRHFIN =O: s2p4

   TITEL  = PAW_PBE O 08Apr2002
   POMASS =   16.000; ZVAL   =    6.000    mass and valenz
   ENMAX  =  400.000; ENMIN  =  300.000 eV
   QCUT   =   -5.520; QGAM   =   11.041    optimization parameters

   Description
     l     E      TYP  RCUT    TYP  RCUT
     0   .000     23  1.200
     0  -.700     23  1.200
     1   .000     23  1.520
     1   .600     23  1.520
     2   .000      7  1.500

 Optimization of the real space projectors (new method)

 maximal supplied QI-value         = 16.25
 optimisation between [QCUT,QGAM] = [ 10.24, 20.48] = [ 29.35,117.42] Ry
 Optimized for a Real-space Cutoff    1.38 Angstroem

   l    n(q)    QCUT    max X(q) W(low)/X(q) W(high)/X(q)  e(spline)
   2      7    10.239     6.328    0.33E-04    0.68E-04    0.30E-07
   2      7    10.239     9.625    0.20E-03    0.23E-03    0.80E-07
   0      8    10.239     9.711    0.17E-04    0.17E-04    0.13E-07
   0      8    10.239    32.764    0.56E-04    0.14E-03    0.62E-07
   1      8    10.239     7.413    0.78E-04    0.28E-04    0.38E-07
   1      8    10.239    31.472    0.43E-03    0.30E-03    0.73E-07
 Optimization of the real space projectors (new method)

[...]

   l    n(q)    QCUT    max X(q) W(low)/X(q) W(high)/X(q)  e(spline)
   2      9    10.197     3.989    0.32E-04    0.18E-04    0.62E-07
   2      9    10.197    41.237    0.35E-03    0.14E-03    0.40E-06
   0     10    10.197    14.164    0.17E-04    0.12E-05    0.12E-07
   0     10    10.197    44.257    0.49E-04    0.25E-04    0.27E-06
   1     10    10.197     7.849    0.10E-04    0.77E-05    0.25E-07
   1     10    10.197    11.007    0.35E-04    0.49E-04    0.91E-07
 Optimization of the real space projectors (new method)

 maximal supplied QI-value         = 24.76
 optimisation between [QCUT,QGAM] = [ 10.15, 20.30] = [ 28.85,115.39] Ry
 Optimized for a Real-space Cutoff    1.30 Angstroem

   l    n(q)    QCUT    max X(q) W(low)/X(q) W(high)/X(q)  e(spline)
   0      8    10.150     4.192    0.55E-04    0.58E-04    0.78E-07
   0      8    10.150     8.473    0.46E-03    0.68E-03    0.23E-06
   1      7    10.150     2.474    0.11E-03    0.93E-04    0.33E-07
   1      7    10.150     3.912    0.46E-03    0.50E-03    0.15E-06
 PAW_PBE Ga_d 06Sep2000                 :
 PAW_PBE Ir 06Sep2000                   :
 PAW_PBE O 08Apr2002                    :

 POSCAR: Ga Ir  O
  positions in direct lattice
  velocities in cartesian coordinates
 exchange correlation table for  LEXCH =        8
   RHO(1)=    0.500       N(1)  =     2000
   RHO(2)=  100.500       N(2)  =     4000

 ion  position               nearest neighbor table
   1  0.090  1.000  0.396- 140 1.82  99 1.82 108 1.83 106 1.86
   2  0.411  0.625  0.605- 157 1.83  72 1.83  85 1.83 121 1.86
   3  0.589  0.625  0.896-  86 1.83  71 1.83 158 1.83 136 1.86
   4  0.160  0.625  0.655-  78 1.93 149 1.94  80 1.94 121 2.01  75 2.08 154 2.08
   5  0.840  0.625  0.844-  77 1.93 150 1.94  79 1.94 136 2.01  76 2.08 153 2.08
   6  0.910  0.500  0.604-  90 1.83  78 1.83 118 1.83  76 1.86
   7  0.090  0.500  0.895-  77 1.82 117 1.83  68 1.83  75 1.85
   8  0.841  0.375  0.844- 117 1.93  79 1.93 119 1.94  65 2.01  76 2.07 116 2.08
   9  0.911  0.250  0.604- 131 1.83  97 1.83 118 1.83 116 1.86
  10  0.089  0.250  0.897- 117 1.83  96 1.83 132 1.84  93 1.86
  11  0.840  0.625  0.344-  89 1.93 138 1.94  90 1.94  81 2.01  88 2.08 141 2.08
  12  0.660  1.000  0.657- 155 1.93 114 1.94 102 1.94  95 2.00 160 2.06 133 2.07
  13  0.159  0.626  0.155-  70 1.93 137 1.93  68 1.94  82 2.01 142 2.07  87 2.09
  14  0.087  0.250  0.399- 120 1.82 129 1.82 108 1.82 127 1.90
  15  0.910  0.250  0.103- 119 1.82 109 1.84 130 1.84 128 1.86
  16  0.841  0.375  0.344- 129 1.93  90 1.93 131 1.94  92 2.01  88 2.07 128 2.08
  17  0.156  0.378  0.153- 130 1.90  68 1.91 132 1.94  87 2.06 122 2.06 127 2.13  64 3.13
  18  0.592  0.378  0.397- 135 1.81  83 1.82  92 1.84 123 1.87
  19  0.412  0.376  0.102-  91 1.81  69 1.82 124 1.83 122 1.90
  20  0.660  0.250  0.155- 126 1.93 105 1.93 124 1.95 128 2.00 100 2.08  92 2.08
  21  0.411  0.625  0.104-  73 1.82 145 1.83  69 1.83  82 1.87
  22  0.341  0.504  0.344-  85 1.91  83 1.93 125 1.96  87 2.01  82 2.03 122 2.09  64 3.09
  23  0.590  0.626  0.396-  74 1.82 146 1.83  83 1.84  81 1.86
  24  0.341  1.000  0.844- 115 1.93 156 1.93 113 1.94  94 2.01 159 2.06 134 2.07
  25  0.412  0.125  0.606- 114 1.82  84 1.83 134 1.85 104 1.85
  26  0.589  0.125  0.896- 105 1.83 115 1.83  67 1.83 133 1.86
  27  0.909  0.999  0.103-  98 1.82 139 1.83 109 1.83 107 1.86
  28  0.841  0.125  0.344- 108 1.93 110 1.93 131 1.94 100 2.01 107 2.07 128 2.08
  29  0.156  0.122  0.153- 109 1.90 111 1.91 132 1.94 106 2.06 101 2.06 127 2.13  64 3.13
  30  0.592  0.122  0.397- 102 1.81 103 1.82 100 1.84 123 1.87
  31  0.412  0.124  0.102- 113 1.81 112 1.82 124 1.83 101 1.90
  32  0.341  0.996  0.343- 144 1.91 103 1.93 104 1.96 106 2.01 147 2.03 101 2.08  64 3.09
  33  0.660  1.000  0.156- 143 1.93 105 1.93 112 1.94 107 2.00 148 2.07 100 2.08
  34  0.090  0.500  0.396-  80 1.82  89 1.82 129 1.83  87 1.86
  35  0.660  0.501  0.156-  86 1.93 126 1.93  69 1.94  88 2.00  81 2.07  92 2.08
  36  0.661  0.250  0.657-  84 1.94 135 1.94 102 1.94 116 2.00 133 2.07  65 2.07
  37  0.909  0.501  0.103-  79 1.82  70 1.83 130 1.83  88 1.86
  38  0.412  0.375  0.606-  72 1.82  84 1.83 125 1.85  66 1.85
  39  0.589  0.375  0.896- 126 1.83  71 1.83  67 1.83  65 1.86
  40  0.159  0.376  0.657- 118 1.93  80 1.94 120 1.95  66 2.01  75 2.06  93 2.08
  41  0.660  0.501  0.657-  74 1.93  72 1.94 135 1.94  76 2.00 136 2.06  65 2.07
  42  0.341  0.501  0.844-  71 1.93  73 1.93  91 1.94  75 2.01 121 2.06  66 2.07
  43  0.090  1.000  0.895- 152 1.82  96 1.83 111 1.83  94 1.85
  44  0.910  0.000  0.604- 110 1.83 151 1.83  97 1.83  95 1.86
  45  0.841  0.125  0.844-  96 1.93  98 1.93 119 1.94 133 2.01  95 2.07 116 2.08
  46  0.159  0.125  0.657-  97 1.93  99 1.94 120 1.95 134 2.01  94 2.06  93 2.08
  47  0.340  0.250  0.844-  67 1.93 113 1.94  91 1.94  93 2.00  66 2.08 134 2.08
  48  0.088  0.750  0.396- 149 1.83 140 1.83  89 1.83 142 1.87
  49  0.911  0.750  0.104- 150 1.83 139 1.84  70 1.84 141 1.86
  50  0.840  0.875  0.344- 140 1.93 138 1.94 110 1.94 148 2.01 107 2.08 141 2.08
  51  0.159  0.874  0.155- 139 1.92 137 1.93 111 1.94 147 2.01 142 2.07 106 2.09
  52  0.590  0.875  0.396- 155 1.82 146 1.83 103 1.84 148 1.86
  53  0.411  0.875  0.104- 156 1.82 145 1.83 112 1.83 147 1.87
  54  0.340  0.750  0.345- 146 1.93  85 1.94 144 1.94 142 2.00 147 2.08  82 2.09
  55  0.660  0.750  0.155- 145 1.94 143 1.94  86 1.94 141 2.00 148 2.08  81 2.08
  56  0.089  0.750  0.895- 137 1.83  77 1.83 152 1.83 154 1.86
  57  0.912  0.750  0.604- 138 1.83 151 1.83  78 1.83 153 1.86
  58  0.840  0.875  0.844- 152 1.93 150 1.94  98 1.94 160 2.01  95 2.07 153 2.08
  59  0.160  0.875  0.655- 151 1.93 149 1.94  99 1.94 159 2.01  94 2.08 154 2.08
  60  0.589  0.875  0.896- 143 1.83 115 1.83 158 1.83 160 1.86
  61  0.411  0.875  0.605- 157 1.83 114 1.83 144 1.83 159 1.86
  62  0.340  0.750  0.845- 158 1.93  73 1.94 156 1.94 154 2.01 159 2.08 121 2.08
  63  0.660  0.750  0.655- 157 1.93 155 1.94  74 1.94 153 2.00 136 2.08 160 2.08
  64  0.341  0.250  0.338- 123 1.95 127 2.00 104 2.00 125 2.00 122 2.04 101 2.04  32 3.09  22 3.09
                            29 3.13  17 3.13
  65  0.672  0.375  0.781-  39 1.86   8 2.01  41 2.07  36 2.07
  66  0.328  0.375  0.720-  38 1.85  40 2.01  42 2.07  47 2.08
  67  0.503  0.250  0.873-  39 1.83  26 1.83  47 1.93
  68  0.165  0.501  0.052-   7 1.83  17 1.91  13 1.94
  69  0.497  0.500  0.128-  19 1.82  21 1.83  35 1.94
  70  0.997  0.624  0.128-  37 1.83  49 1.84  13 1.93
  71  0.503  0.500  0.872-  39 1.83   3 1.83  42 1.93
  72  0.497  0.500  0.627-  38 1.82   2 1.83  41 1.94
  73  0.336  0.624  0.947-  21 1.82  42 1.93  62 1.94
  74  0.664  0.624  0.553-  23 1.82  41 1.93  63 1.94
  75  0.173  0.500  0.780-   7 1.85  42 2.01  40 2.06   4 2.08
  76  0.828  0.500  0.720-   6 1.86  41 2.00   8 2.07   5 2.08
  77  0.003  0.624  0.872-   7 1.82  56 1.83   5 1.93
  78  0.997  0.624  0.627-   6 1.83  57 1.83   4 1.93
  79  0.835  0.500  0.947-  37 1.82   8 1.93   5 1.94
  80  0.165  0.500  0.553-  34 1.82  40 1.94   4 1.94
  81  0.672  0.625  0.281-  23 1.86  11 2.01  35 2.07  55 2.08
  82  0.328  0.625  0.219-  21 1.87  13 2.01  22 2.03  54 2.09
  83  0.503  0.500  0.372-  18 1.82  23 1.84  22 1.93
  84  0.497  0.250  0.626-  25 1.83  38 1.83  36 1.94
  85  0.336  0.625  0.448-   2 1.83  22 1.91  54 1.94
  86  0.664  0.624  0.053-   3 1.83  35 1.93  55 1.94
  87  0.173  0.500  0.280-  34 1.86  22 2.01  17 2.06  13 2.09
  88  0.827  0.500  0.220-  37 1.86  35 2.00  16 2.07  11 2.08
  89  0.003  0.624  0.372-  34 1.82  48 1.83  11 1.93
  90  0.835  0.500  0.447-   6 1.83  16 1.93  11 1.94
  91  0.335  0.376  0.947-  19 1.81  42 1.94  47 1.94
  92  0.672  0.375  0.281-  18 1.84  16 2.01  35 2.08  20 2.08
  93  0.173  0.250  0.781-  10 1.86  47 2.00  40 2.08  46 2.08
  94  0.173  0.000  0.780-  43 1.85  24 2.01  46 2.06  59 2.08
  95  0.828  0.000  0.720-  44 1.86  12 2.00  45 2.07  58 2.07
  96  0.003  0.124  0.873-  43 1.83  10 1.83  45 1.93
  97  0.997  0.124  0.628-  44 1.83   9 1.83  46 1.93
  98  0.835  0.000  0.947-  27 1.82  45 1.93  58 1.94
  99  0.165  0.000  0.553-   1 1.82  46 1.94  59 1.94
 100  0.672  0.125  0.281-  30 1.84  28 2.01  33 2.08  20 2.08
 101  0.328  0.123  0.220-  31 1.90  64 2.04  29 2.06  32 2.08
 102  0.664  0.125  0.553-  30 1.81  12 1.94  36 1.94
 103  0.503  1.000  0.372-  30 1.82  52 1.84  32 1.93
 104  0.337  0.123  0.447-  25 1.85  32 1.96  64 2.00
 105  0.663  0.125  0.053-  26 1.83  20 1.93  33 1.93
 106  0.173  0.001  0.280-   1 1.86  32 2.01  29 2.06  51 2.09
 107  0.827  0.000  0.220-  27 1.86  33 2.00  28 2.07  50 2.08
 108  0.003  0.124  0.372-  14 1.82   1 1.83  28 1.93
 109  0.996  0.124  0.128-  27 1.83  15 1.84  29 1.90
 110  0.835  0.000  0.447-  44 1.83  28 1.93  50 1.94
 111  0.165  1.000  0.052-  43 1.83  29 1.91  51 1.94
 112  0.497  1.000  0.128-  31 1.82  53 1.83  33 1.94
 113  0.335  0.124  0.947-  31 1.81  24 1.94  47 1.94
[...]
   -.945E+02 0.297E+00 -.312E+02   0.922E+02 -.292E+00 0.328E+02   0.216E+01 -.947E-02 -.144E+01
   -.393E+02 0.291E+01 -.731E+02   0.405E+02 -.288E+01 0.779E+02   -.112E+01 -.161E-01 -.441E+01
   0.576E+02 -.197E+02 0.850E+02   -.585E+02 0.191E+02 -.893E+02   0.837E+00 0.478E+00 0.402E+01
   0.212E+02 0.208E+02 0.611E+02   -.229E+02 -.203E+02 -.659E+02   0.160E+01 -.470E+00 0.447E+01
   -.165E+03 0.386E-01 0.448E+02   0.162E+03 -.372E-01 -.398E+02   0.274E+01 -.501E-02 -.454E+01
   0.433E+02 0.187E+00 0.345E+00   -.421E+02 -.182E+00 -.297E+01   -.108E+01 -.653E-02 0.237E+01
   -.395E+02 0.173E+02 -.709E+02   0.408E+02 -.169E+02 0.757E+02   -.116E+01 -.379E+00 -.446E+01
   -.541E+02 0.800E+02 0.740E+01   0.503E+02 -.781E+02 -.133E+02   0.354E+01 -.183E+01 0.546E+01
   0.148E+02 0.662E+02 -.174E+02   -.150E+02 -.637E+02 0.200E+02   0.195E+00 -.224E+01 -.233E+01
   0.104E+03 0.470E+02 -.647E+02   -.101E+03 -.465E+02 0.601E+02   -.285E+01 -.470E+00 0.419E+01
   0.654E+02 0.324E-02 0.520E+02   -.657E+02 -.171E-02 -.569E+02   0.335E+00 0.109E-02 0.463E+01
   0.783E+02 0.140E+02 -.144E+01   -.763E+02 -.140E+02 -.150E+01   -.187E+01 -.111E-01 0.263E+01
   -.335E+02 0.131E+03 -.763E+02   0.347E+02 -.129E+03 0.806E+02   -.116E+01 -.199E+01 -.402E+01
   -.553E+02 0.114E+02 -.134E+02   0.537E+02 -.114E+02 0.159E+02   0.147E+01 -.235E-01 -.225E+01
   -.368E+02 -.184E+02 -.740E+02   0.381E+02 0.178E+02 0.785E+02   -.121E+01 0.532E+00 -.417E+01
   0.105E+03 -.519E+02 0.100E+03   -.102E+03 0.515E+02 -.101E+03   -.280E+01 0.365E+00 0.470E+00
   -.633E+02 -.155E+02 -.135E+02   0.613E+02 0.152E+02 0.159E+02   0.182E+01 0.309E+00 -.215E+01
   0.607E+02 -.127E+02 0.725E+01   -.589E+02 0.124E+02 -.977E+01   -.166E+01 0.236E+00 0.227E+01
   -.395E+02 -.174E+02 -.709E+02   0.407E+02 0.170E+02 0.757E+02   -.116E+01 0.375E+00 -.445E+01
   -.537E+02 -.802E+02 0.792E+01   0.499E+02 0.782E+02 -.138E+02   0.350E+01 0.182E+01 0.542E+01
   0.151E+02 -.663E+02 -.176E+02   -.153E+02 0.638E+02 0.202E+02   0.168E+00 0.225E+01 -.231E+01
   0.104E+03 -.475E+02 -.645E+02   -.101E+03 0.470E+02 0.599E+02   -.281E+01 0.482E+00 0.416E+01
   -.338E+02 -.132E+03 -.773E+02   0.351E+02 0.129E+03 0.816E+02   -.115E+01 0.204E+01 -.395E+01
   0.519E+02 -.193E+02 0.622E+02   -.528E+02 0.187E+02 -.671E+02   0.834E+00 0.479E+00 0.456E+01
   -.107E+03 0.367E+02 0.108E+01   0.105E+03 -.365E+02 0.170E+01   0.208E+01 -.191E+00 -.252E+01
   0.521E+02 0.188E+02 0.621E+02   -.530E+02 -.183E+02 -.670E+02   0.833E+00 -.463E+00 0.457E+01
   0.746E+02 0.178E+00 0.101E+03   -.751E+02 -.173E+00 -.106E+03   0.454E+00 -.253E-02 0.385E+01
   0.607E+02 0.124E+02 0.716E+01   -.589E+02 -.122E+02 -.968E+01   -.166E+01 -.238E+00 0.228E+01
   0.105E+03 0.520E+02 0.100E+03   -.102E+03 -.516E+02 -.101E+03   -.276E+01 -.361E+00 0.548E+00
   -.634E+02 0.152E+02 -.137E+02   0.614E+02 -.149E+02 0.161E+02   0.185E+01 -.289E+00 -.215E+01
   0.201E+02 0.239E+02 0.101E+03   -.216E+02 -.232E+02 -.105E+03   0.137E+01 -.586E+00 0.404E+01
   0.574E+02 0.192E+02 0.849E+02   -.583E+02 -.187E+02 -.893E+02   0.847E+00 -.456E+00 0.402E+01
   -.369E+02 0.180E+02 -.741E+02   0.382E+02 -.174E+02 0.786E+02   -.121E+01 -.529E+00 -.417E+01
   -.843E+02 -.134E+02 -.217E+02   0.818E+02 0.133E+02 0.236E+02   0.224E+01 0.870E-01 -.174E+01
   0.713E+02 -.974E+01 0.200E+02   -.691E+02 0.962E+01 -.224E+02   -.202E+01 0.111E+00 0.216E+01
   -.386E+02 -.129E+02 -.721E+02   0.399E+02 0.125E+02 0.768E+02   -.119E+01 0.343E+00 -.435E+01
   0.199E+02 -.240E+02 0.101E+03   -.214E+02 0.234E+02 -.105E+03   0.138E+01 0.593E+00 0.405E+01
   -.362E+02 0.323E+00 -.769E+02   0.372E+02 -.303E+00 0.812E+02   -.919E+00 -.168E-01 -.406E+01
   -.792E+02 0.302E+00 -.718E+01   0.774E+02 -.291E+00 0.998E+01   0.162E+01 -.101E-01 -.252E+01
   0.644E+02 0.303E+00 0.752E+01   -.630E+02 -.288E+00 -.101E+02   -.132E+01 -.124E-01 0.231E+01
   -.394E+02 -.277E+01 -.730E+02   0.406E+02 0.274E+01 0.778E+02   -.113E+01 0.145E-01 -.442E+01
   0.213E+02 -.208E+02 0.610E+02   -.231E+02 0.203E+02 -.658E+02   0.162E+01 0.484E+00 0.448E+01
   -.554E+02 -.115E+02 -.136E+02   0.537E+02 0.115E+02 0.161E+02   0.148E+01 0.301E-01 -.225E+01
   0.784E+02 -.138E+02 -.127E+01   -.763E+02 0.138E+02 -.167E+01   -.190E+01 0.193E-01 0.263E+01
   -.346E+02 0.326E+00 -.711E+02   0.358E+02 -.322E+00 0.760E+02   -.111E+01 -.258E-02 -.456E+01
   0.422E+02 0.233E+00 0.692E+02   -.432E+02 -.233E+00 -.740E+02   0.882E+00 -.172E-02 0.443E+01
   -.767E+02 0.260E+00 -.146E+02   0.749E+02 -.251E+00 0.168E+02   0.164E+01 -.656E-02 -.203E+01
   0.690E+02 0.306E+00 0.145E+02   -.673E+02 -.292E+00 -.171E+02   -.151E+01 -.871E-02 0.228E+01
   -.371E+02 0.546E+00 -.722E+02   0.383E+02 -.504E+00 0.769E+02   -.118E+01 -.464E-01 -.437E+01
   0.305E+02 -.672E+01 0.826E+02   -.318E+02 0.664E+01 -.873E+02   0.126E+01 0.668E-01 0.432E+01
   -.667E+02 -.494E+00 -.134E+02   0.647E+02 0.582E+00 0.159E+02   0.174E+01 -.873E-01 -.219E+01
[...]
   -.469E+02 -.668E+01 0.564E+02   0.461E+02 0.567E+01 -.521E+02   0.615E+00 0.760E+00 -.362E+01
   0.531E+02 -.391E+00 -.537E+02   -.525E+02 0.183E+00 0.482E+02   -.457E+00 0.960E-01 0.468E+01
   -.112E+03 0.172E+00 0.946E+02   0.123E+03 -.174E+00 -.941E+02   -.973E+01 -.178E-02 -.301E+00
   0.108E+03 0.120E+00 -.915E+02   -.120E+03 -.117E+00 0.910E+02   0.968E+01 -.608E-02 0.345E+00
   -.204E+02 -.199E+01 -.799E+01   0.285E+02 0.201E+01 0.950E+01   -.688E+01 -.151E+00 -.121E+01
   0.169E+02 -.961E+00 0.890E+01   -.253E+02 0.864E+00 -.103E+02   0.711E+01 -.494E-01 0.112E+01
   -.484E+02 0.102E+00 0.543E+02   0.480E+02 -.103E+00 -.490E+02   0.251E+00 -.135E-02 -.453E+01
   0.463E+02 0.152E+00 -.513E+02   -.458E+02 -.151E+00 0.459E+02   -.374E+00 -.349E-02 0.463E+01
   -.102E+03 -.362E+01 0.925E+02   0.114E+03 0.375E+01 -.919E+02   -.974E+01 -.219E+00 -.463E+00
   0.109E+03 -.239E+01 -.950E+02   -.121E+03 0.235E+01 0.945E+02   0.989E+01 -.760E-01 0.419E+00
   -.172E+02 0.131E-01 -.613E+01   0.258E+02 -.465E-02 0.747E+01   -.721E+01 -.152E-01 -.108E+01
   0.203E+02 0.103E+00 0.107E+02   -.286E+02 -.973E-01 -.122E+02   0.695E+01 -.113E-01 0.124E+01
   -.465E+02 -.101E+01 0.573E+02   0.457E+02 0.764E+00 -.519E+02   0.619E+00 0.130E+00 -.461E+01
   0.513E+02 0.327E+01 -.526E+02   -.507E+02 -.370E+01 0.474E+02   -.450E+00 0.275E+00 0.440E+01
   -.324E+01 -.322E+00 -.882E+01   -.377E-12 -.224E-11 -.725E-12   0.273E+01 0.268E+00 0.796E+01

 POSITION                                       TOTAL-FORCE (eV/Angst)
      1.06785     12.12839      4.32659        -0.002083      0.001352     -0.005742
      4.87647      7.58686      5.80307        -0.001218      0.000366      0.004891
      6.98861      7.58381      8.65606         0.004468      0.000668      0.007507
      1.89292      7.58335      7.12232         0.004661      0.000703      0.007091
      9.96877      7.58332      7.32600         0.002264     -0.000190      0.003432
     10.79536      6.06714      4.33836         0.000863      0.000786     -0.002141
      1.06447      6.07105     10.10470         0.000560      0.003427     -0.006381
      9.97254      4.55497      7.32451        -0.001360      0.001750      0.000910
     10.81000      3.03390      4.34024         0.003513     -0.000775      0.001755
      1.05652      3.03420     10.12208         0.002515      0.001105     -0.007466
      9.96866      7.58308      1.53951        -0.003173      0.000773     -0.004102
      7.82833     12.12686      5.68201         0.001506      0.001781     -0.000500
      1.88661      7.59099      1.33343        -0.001691      0.000822      0.002727
      1.02894      3.03425      4.36902        -0.008613     -0.000873      0.004114
     10.79525      3.03400     -1.45410        -0.012744      0.000011     -0.007834
      9.97185      4.55508      1.53532        -0.005632      0.002087     -0.002198
      1.84987      4.58551      1.31568        -0.002184     -0.001314     -0.007988
      7.02713      4.58943      2.87368         0.001834      0.001976      0.000558
      4.88994      4.55807     -0.02089        -0.001590      0.000388     -0.008608
      7.83228      3.03426     -0.12529        -0.005628     -0.000680      0.011283
      4.87472      7.58715      0.00226         0.001420      0.005549     -0.001813
      4.04172      6.11843      2.98555        -0.005253     -0.001647     -0.008601
      6.99475      7.59071      2.86843         0.001062      0.000059     -0.003611
      4.03943     12.12646      8.77689         0.000338     -0.000079      0.001619
      4.88767      1.51553      5.82095         0.002529     -0.000561      0.003406
      6.99108      1.51638      8.65698         0.005959      0.000014      0.003344
     10.78441     12.12591     -1.45067        -0.003421      0.003458      0.003686
      9.97192      1.51337      1.53551        -0.004962     -0.001890     -0.002309
      1.85007      1.48276      1.31557        -0.001587      0.001237     -0.008856
      7.02662      1.47992      2.87288         0.000944     -0.003995      0.000939
      4.89065      1.51020     -0.02085        -0.001354     -0.000901     -0.007409
      4.04154     12.08124      2.98384        -0.005058      0.003282     -0.007278
      7.82700     12.12659     -0.11784        -0.001456     -0.002441      0.002835
      1.06802      6.07154      4.32661        -0.003781     -0.001481     -0.006170
      7.82681      6.07357     -0.11755        -0.001410      0.001618      0.002980
      7.83603      3.03423      5.67783         0.002960     -0.000072      0.002272
     10.78453      6.07377     -1.45063        -0.002460     -0.003924      0.006637
      4.88693      4.55400      5.82058         0.002599     -0.000768      0.002865
      6.99213      4.55351      8.65699         0.005310     -0.000659      0.003719
      1.89173      4.55768      7.13721         0.002638      0.004254     -0.004410
      7.82842      6.07353      5.68225         0.000974     -0.001130     -0.001582
      4.03961      6.07415      8.77676         0.001155      0.000083      0.001624
      1.06413     12.12854     10.10476         0.001685     -0.000854     -0.007806
     10.79524      0.00054      4.33836         0.001206     -0.000174     -0.001573
      9.97253      1.51347      7.32477        -0.002029     -0.001005      0.000205
      1.89157      1.51056      7.13706         0.002786     -0.004165     -0.005187
      4.03403      3.03457      8.78552         0.000821     -0.000670     -0.008678
      1.04818      9.10013      4.32637        -0.002885      0.000530      0.005366
     10.80825      9.09981     -1.45206        -0.003375      0.000039      0.003655
      9.96870     10.61731      1.53927        -0.002471     -0.000753     -0.004253
      1.88615     10.60888      1.33335        -0.001240      0.000565      0.004391
      6.99540     10.61017      2.86829        -0.000156     -0.000123     -0.003406
      4.87410     10.61348      0.00199         0.001419     -0.006196     -0.001107
      4.03384      9.10028      3.00216         0.011335      0.000245      0.004746
      7.82939      9.10025     -0.12668         0.000996     -0.000069      0.000187
      1.05061      9.09980     10.10907         0.004696      0.001277      0.007406
     10.81225      9.09986      4.33782         0.001859      0.000994     -0.004644
      9.96878     10.61692      7.32575         0.002483      0.001438      0.002737
      1.89275     10.61704      7.12267         0.004589      0.001122      0.007526
      6.98925     10.61786      8.65598         0.005018     -0.000668      0.006309
[...]
      5.95925      9.10084      2.84599         0.003657     -0.000910      0.005758
      3.88531     10.62093      1.58325        -0.000450      0.001873      0.004885
      7.97613     10.62245      1.28990        -0.002738      0.003819      0.005835
      1.94225      9.10075      5.92010         0.002891     -0.000141      0.001505
      9.92013      9.10055      8.52920         0.000722      0.000301     -0.005690
     11.82924     10.62594      4.35976         0.002537      0.000873      0.002133
      0.03351     10.62380     10.09001         0.000932      0.000008      0.002870
      9.81761      9.10001      5.91384         0.002108     -0.000417     -0.000581
      2.04555      9.10031      8.53570        -0.000301      0.000167      0.004741
      7.87841     10.62574      4.46455         0.005735      0.000811      0.008118
      3.98279     10.62479      9.98870        -0.001600      0.000365      0.003150
      5.90179      9.10125      5.81618        -0.004246     -0.002161     -0.001613
      5.96260      9.10133      8.63434         0.000228     -0.000481      0.004534
      3.88617     10.62216      7.37438         0.002791      0.001911     -0.002254
      7.97523     10.62374      7.07851         0.001046     -0.001669     -0.004905
    total drift:                               -0.209868     -0.009921     -0.030507

  FREE ENERGIE OF THE ION-ELECTRON SYSTEM (eV)
  free  energy   TOTEN  =     -1518.22948253 eV

  energy  without entropy=    -1518.22948253  energy(sigma->0) =    -1518.22948253

 d Force = 0.3230244E-05[ 0.842E-06, 0.562E-05]  d Energy = 0.2515051E-04-0.219E-04
 d Force =-0.7439776E-02[-0.750E-02,-0.738E-02]  d Ewald  =-0.7440424E-02 0.648E-06

 reached required accuracy - stopping structural energy minimisation
 writing wavefunctions

 total charge

[...]

 magnetization (x)

# of ion       s       p       d       tot
    1       -0.000   0.000   0.000   0.000
    2        0.000  -0.000   0.000   0.000
    3       -0.000  -0.000  -0.000  -0.000
    4       -0.000   0.000   0.000   0.000
    5       -0.000  -0.000   0.000  -0.000
    6       -0.000  -0.000   0.000  -0.000
    7       -0.000  -0.000   0.000  -0.000
    8       -0.000  -0.000  -0.000  -0.000
    9        0.000  -0.000  -0.000  -0.000
   10        0.000   0.000   0.000   0.000
   11       -0.000  -0.000   0.000  -0.000
   12        0.000  -0.000   0.000   0.000
   13       -0.000  -0.000   0.000  -0.000
   14        0.002   0.004   0.001   0.007
   15       -0.000   0.000   0.000   0.000
   16        0.000   0.000   0.000   0.000
   17        0.001   0.001   0.000   0.002
   18       -0.001  -0.002   0.001  -0.002
   19        0.000   0.000   0.000   0.001
   20       -0.000  -0.000  -0.000  -0.000
   21       -0.000  -0.000   0.000  -0.000
   22       -0.000  -0.000   0.000  -0.001
   23       -0.000  -0.000   0.000  -0.000
   24       -0.000  -0.000  -0.000  -0.000
   25       -0.000  -0.000   0.000  -0.000
   26        0.000  -0.000   0.000   0.000
   27       -0.000  -0.000  -0.000  -0.000
   28        0.000   0.000   0.000   0.000
   29        0.001   0.001   0.000   0.002
   30       -0.001  -0.002   0.001  -0.001
   31        0.000   0.000   0.000   0.001
   32       -0.000  -0.000   0.000  -0.001
   33        0.000  -0.000   0.000   0.000
   34       -0.000   0.000   0.000   0.000
   35        0.000  -0.000   0.000   0.000
   36       -0.000  -0.000  -0.000  -0.000
   37       -0.000  -0.000  -0.000  -0.000
   38       -0.000  -0.000   0.000  -0.000
   39        0.000  -0.000   0.000   0.000
   40       -0.000   0.000   0.000   0.000
   41        0.000  -0.000   0.000   0.000
   42       -0.000  -0.000  -0.000  -0.000
   43       -0.000  -0.000  -0.000  -0.000
   44       -0.000  -0.000  -0.000  -0.000
   45       -0.000  -0.000  -0.000  -0.000
   46       -0.000   0.000   0.000   0.000
   47        0.000  -0.000  -0.000  -0.000
   48        0.000  -0.000   0.000  -0.000
   49       -0.000  -0.000  -0.000  -0.000
   50       -0.000  -0.000   0.000  -0.000
   51       -0.000  -0.000   0.000  -0.000
   52       -0.000  -0.000   0.000  -0.000
   53        0.000  -0.000   0.000   0.000
   54       -0.000  -0.000  -0.000  -0.000
   55       -0.000  -0.000   0.000  -0.000
   56       -0.000  -0.000   0.000  -0.000
   57        0.000   0.000   0.000   0.000
   58       -0.000  -0.000   0.000  -0.000
   59        0.000   0.000   0.000   0.000
   60       -0.000  -0.000   0.000  -0.000
[...]
  146       -0.000  -0.000   0.000  -0.000
  147       -0.000  -0.000   0.000  -0.000
  148       -0.000   0.000   0.000   0.000
  149       -0.000   0.000   0.000   0.000
  150       -0.000  -0.000   0.000  -0.000
  151        0.000   0.000   0.000   0.000
  152       -0.000   0.000   0.000   0.000
  153       -0.000   0.000   0.000  -0.000
  154        0.000   0.000   0.000   0.000
  155       -0.000   0.000   0.000   0.000
  156        0.000   0.000   0.000   0.000
  157        0.000   0.000   0.000   0.000
  158       -0.000  -0.000   0.000  -0.000
  159        0.000   0.000   0.000   0.000
  160       -0.000   0.000   0.000   0.000
tot          0.014   0.195   0.742   0.952