 vasp.5.4.4.18Apr17-6-g9f103f2a35 (build Jun 06 2017 17:32:29) complex

 executed on      LLNL_Quartz_ifc date 2020.03.09  19:36:06

 INCAR:
 POTCAR:   PAW_PBE Ga_d 06Sep2000
 POTCAR:   PAW_PBE Cr_pv 07Sep2000
 POTCAR:   PAW_PBE O 08Apr2002

 POTCAR:   PAW_PBE Ga_d 06Sep2000
   VRHFIN =Ga: s2p1

   TITEL  = PAW_PBE Ga_d 06Sep2000
   POMASS =   69.723; ZVAL   =   13.000    mass and valenz
   ENMAX  =  282.697; ENMIN  =  212.022 eV
   QCUT   =   -4.558; QGAM   =    9.117    optimization parameters

   Description
     l     E      TYP  RCUT    TYP  RCUT
     2   .000     23  2.300
     2  -.400     23  2.300
     0   .000     23  2.300
     0   .000     23  2.300
     1   .000     23  2.300
     1   .000     23  2.300
     3  -.100      7  2.300

 POTCAR:   PAW_PBE Cr_pv 07Sep2000
   VRHFIN =Cr : p6d5s1

   TITEL  = PAW_PBE Cr_pv 07Sep2000
   POMASS =   51.996; ZVAL   =   12.000    mass and valenz
   ENMAX  =  265.683; ENMIN  =  199.262 eV
   QCUT   =   -4.419; QGAM   =    8.838    optimization parameters

[...]

 POTCAR:   PAW_PBE O 08Apr2002
   VRHFIN =O: s2p4

   TITEL  = PAW_PBE O 08Apr2002
   POMASS =   16.000; ZVAL   =    6.000    mass and valenz
   ENMAX  =  400.000; ENMIN  =  300.000 eV
   QCUT   =   -5.520; QGAM   =   11.041    optimization parameters

   Description
     l     E      TYP  RCUT    TYP  RCUT
     0   .000     23  1.200
     0  -.700     23  1.200
     1   .000     23  1.520
     1   .600     23  1.520
     2   .000      7  1.500

 Optimization of the real space projectors (new method)

 maximal supplied QI-value         = 16.25
 optimisation between [QCUT,QGAM] = [ 10.24, 20.48] = [ 29.35,117.42] Ry
 Optimized for a Real-space Cutoff    1.38 Angstroem

   l    n(q)    QCUT    max X(q) W(low)/X(q) W(high)/X(q)  e(spline)
   2      7    10.239     6.328    0.33E-04    0.68E-04    0.30E-07
   2      7    10.239     9.625    0.20E-03    0.23E-03    0.80E-07
   0      8    10.239     9.711    0.17E-04    0.17E-04    0.13E-07
   0      8    10.239    32.764    0.56E-04    0.14E-03    0.62E-07
   1      8    10.239     7.413    0.78E-04    0.28E-04    0.38E-07
   1      8    10.239    31.472    0.43E-03    0.30E-03    0.73E-07
 Optimization of the real space projectors (new method)

[...]

   l    n(q)    QCUT    max X(q) W(low)/X(q) W(high)/X(q)  e(spline)
   1      9    10.239     3.725    0.12E-04    0.42E-05    0.32E-07
   1      9    10.239     4.899    0.39E-04    0.80E-04    0.16E-06
   2      9    10.239     4.046    0.87E-05    0.38E-04    0.55E-07
   2      9    10.239    59.627    0.23E-03    0.52E-03    0.25E-06
   0     10    10.239    23.955    0.21E-04    0.25E-05    0.94E-08
   0     10    10.239    65.137    0.37E-04    0.23E-05    0.66E-07
 Optimization of the real space projectors (new method)

 maximal supplied QI-value         = 24.76
 optimisation between [QCUT,QGAM] = [ 10.15, 20.30] = [ 28.85,115.39] Ry
 Optimized for a Real-space Cutoff    1.30 Angstroem

   l    n(q)    QCUT    max X(q) W(low)/X(q) W(high)/X(q)  e(spline)
   0      8    10.150     4.192    0.55E-04    0.58E-04    0.78E-07
   0      8    10.150     8.473    0.46E-03    0.68E-03    0.23E-06
   1      7    10.150     2.474    0.11E-03    0.93E-04    0.33E-07
   1      7    10.150     3.912    0.46E-03    0.50E-03    0.15E-06
 PAW_PBE Ga_d 06Sep2000                 :
 PAW_PBE Cr_pv 07Sep2000                :
 PAW_PBE O 08Apr2002                    :

 POSCAR: Ga Cr  O
  positions in direct lattice
  velocities in cartesian coordinates
 exchange correlation table for  LEXCH =        8
   RHO(1)=    0.500       N(1)  =     2000
   RHO(2)=  100.500       N(2)  =     4000

 ion  position               nearest neighbor table
   1  0.090  0.000  0.396-  99 1.82 108 1.83 140 1.83 106 1.86
   2  0.411  0.625  0.604-  85 1.83  72 1.83 157 1.83 121 1.86
   3  0.589  0.625  0.896-  86 1.83  71 1.83 158 1.83 136 1.86
   4  0.160  0.625  0.656-  78 1.93  80 1.94 149 1.94 121 2.01  75 2.07 154 2.08
   5  0.841  0.625  0.844-  77 1.93  79 1.94 150 1.94 136 2.01  76 2.07 153 2.08
   6  0.910  0.500  0.604-  90 1.83 118 1.83  78 1.83  76 1.86
   7  0.090  0.500  0.896-  68 1.83  77 1.83 117 1.83  75 1.86
   8  0.841  0.375  0.844- 117 1.93  79 1.94 119 1.94  65 2.01  76 2.07 116 2.08
   9  0.911  0.250  0.604- 131 1.83  97 1.83 118 1.83 116 1.86
  10  0.089  0.250  0.896- 132 1.83  96 1.83 117 1.83  93 1.86
  11  0.841  0.625  0.344-  89 1.93  90 1.94 138 1.94  81 2.01  88 2.07 141 2.08
  12  0.660  1.000  0.656- 114 1.93 102 1.93 155 1.93  95 2.01 160 2.07 133 2.07
  13  0.160  0.625  0.156-  70 1.93  68 1.94 137 1.94  82 2.01  87 2.07 142 2.08
  14  0.089  0.250  0.396- 120 1.83 129 1.83 108 1.83 127 1.86
  15  0.911  0.250  0.104- 119 1.83 130 1.83 109 1.83 128 1.86
  16  0.841  0.375  0.344- 129 1.93  90 1.94 131 1.94  92 2.01  88 2.07 128 2.08
  17  0.159  0.376  0.156- 130 1.93  68 1.93 132 1.94 122 2.02  87 2.07 127 2.08
  18  0.590  0.375  0.396- 135 1.83 123 1.83  83 1.83  92 1.86
  19  0.411  0.375  0.104-  91 1.83  69 1.83 124 1.83 122 1.86
  20  0.660  0.250  0.155- 124 1.94 126 1.94 105 1.94 128 2.01  92 2.08 100 2.08
  21  0.411  0.625  0.104-  73 1.83  69 1.83 145 1.83  82 1.86
  22  0.341  0.500  0.345- 125 1.93  85 1.93  83 1.93  87 2.01  82 2.07 122 2.07  64 3.04
  23  0.589  0.625  0.396-  74 1.83  83 1.83 146 1.83  81 1.86
  24  0.341  0.000  0.844- 115 1.93 156 1.93 113 1.94  94 2.01 134 2.07 159 2.07
  25  0.411  0.125  0.604- 104 1.82 114 1.83  84 1.83 134 1.86
  26  0.589  0.125  0.896- 105 1.83 115 1.83  67 1.83 133 1.86
  27  0.910  1.000  0.104-  98 1.82 139 1.83 109 1.83 107 1.86
  28  0.841  0.125  0.344- 108 1.93 110 1.94 131 1.94 100 2.01 107 2.07 128 2.08
  29  0.159  0.125  0.156- 109 1.93 111 1.93 132 1.94 101 2.02 106 2.07 127 2.08
  30  0.590  0.125  0.397- 102 1.83 123 1.83 103 1.83 100 1.86
  31  0.411  0.125  0.104- 113 1.83 112 1.83 124 1.83 101 1.86
  32  0.341  1.000  0.345- 104 1.93 144 1.93 103 1.93 106 2.01 147 2.07 101 2.07  64 3.04
  33  0.660  0.000  0.156- 112 1.93 143 1.93 105 1.93 107 2.01 100 2.07 148 2.07
  34  0.090  0.500  0.396-  80 1.82 129 1.83  89 1.83  87 1.86
  35  0.660  0.500  0.156-  69 1.93  86 1.93 126 1.93  88 2.01  92 2.07  81 2.07
  36  0.660  0.250  0.655-  84 1.93 135 1.94 102 1.94 116 2.01 133 2.08  65 2.08
  37  0.910  0.500  0.104-  79 1.82 130 1.83  70 1.83  88 1.86
  38  0.411  0.375  0.604- 125 1.82  72 1.83  84 1.83  66 1.86
  39  0.589  0.375  0.896- 126 1.83  71 1.83  67 1.83  65 1.86
  40  0.160  0.375  0.656- 118 1.93  80 1.94 120 1.94  66 2.01  75 2.07  93 2.08
  41  0.660  0.500  0.656-  72 1.93 135 1.93  74 1.93  76 2.01 136 2.07  65 2.07
  42  0.341  0.500  0.844-  71 1.93  91 1.93  73 1.93  75 2.01  66 2.07 121 2.07
  43  0.090  0.000  0.896- 111 1.83 152 1.83  96 1.83  94 1.86
  44  0.910  0.000  0.604- 110 1.83  97 1.83 151 1.83  95 1.86
  45  0.840  0.125  0.844-  96 1.93  98 1.94 119 1.94 133 2.01  95 2.07 116 2.08
  46  0.160  0.125  0.656-  97 1.93  99 1.94 120 1.94 134 2.01  94 2.07  93 2.08
  47  0.340  0.250  0.845-  67 1.93 113 1.94  91 1.94  93 2.01  66 2.08 134 2.08
  48  0.089  0.750  0.396- 149 1.83  89 1.83 140 1.83 142 1.86
  49  0.911  0.750  0.104- 150 1.83  70 1.83 139 1.83 141 1.86
  50  0.841  0.875  0.344- 140 1.93 110 1.94 138 1.94 148 2.01 107 2.07 141 2.08
  51  0.160  0.875  0.156- 139 1.93 111 1.94 137 1.94 147 2.01 106 2.07 142 2.08
  52  0.590  0.875  0.396- 155 1.83 103 1.83 146 1.83 148 1.86
  53  0.411  0.875  0.104- 156 1.83 112 1.83 145 1.83 147 1.86
  54  0.340  0.750  0.344- 146 1.93 144 1.94  85 1.94 142 2.01 147 2.08  82 2.08
  55  0.660  0.750  0.155- 145 1.93 143 1.94  86 1.94 141 2.01 148 2.08  81 2.08
  56  0.089  0.750  0.896- 137 1.83  77 1.83 152 1.83 154 1.86
  57  0.911  0.750  0.604- 138 1.83  78 1.83 151 1.83 153 1.86
  58  0.841  0.875  0.844- 152 1.93  98 1.94 150 1.94 160 2.01  95 2.07 153 2.08
  59  0.160  0.875  0.656- 151 1.93  99 1.94 149 1.94 159 2.01  94 2.07 154 2.08
  60  0.589  0.875  0.896- 143 1.83 115 1.83 158 1.83 160 1.86
  61  0.411  0.875  0.604- 144 1.83 114 1.83 157 1.83 159 1.86
  62  0.340  0.750  0.845- 158 1.93  73 1.94 156 1.94 154 2.01 159 2.08 121 2.08
  63  0.660  0.750  0.655- 157 1.93  74 1.94 155 1.94 153 2.01 160 2.08 136 2.08
  64  0.340  0.250  0.340- 123 1.96 104 1.97 125 1.97 127 2.00 101 2.04 122 2.04  32 3.04  22 3.04

  65  0.673  0.376  0.781-  39 1.86   8 2.01  41 2.07  36 2.08
  66  0.328  0.375  0.719-  38 1.86  40 2.01  42 2.07  47 2.08
  67  0.503  0.250  0.872-  39 1.83  26 1.83  47 1.93
  68  0.164  0.500  0.053-   7 1.83  17 1.93  13 1.94
  69  0.497  0.500  0.128-  19 1.83  21 1.83  35 1.93
  70  0.997  0.624  0.128-  37 1.83  49 1.83  13 1.93
  71  0.503  0.500  0.872-  39 1.83   3 1.83  42 1.93
  72  0.497  0.500  0.628-   2 1.83  38 1.83  41 1.93
  73  0.336  0.625  0.947-  21 1.83  42 1.93  62 1.94
  74  0.664  0.625  0.553-  23 1.83  41 1.93  63 1.94
  75  0.173  0.500  0.781-   7 1.86  42 2.01   4 2.07  40 2.07
  76  0.828  0.500  0.720-   6 1.86  41 2.01   5 2.07   8 2.07
  77  0.003  0.624  0.872-   7 1.83  56 1.83   5 1.93
  78  0.997  0.624  0.628-   6 1.83  57 1.83   4 1.93
  79  0.836  0.500  0.947-  37 1.82   5 1.94   8 1.94
  80  0.164  0.500  0.553-  34 1.82  40 1.94   4 1.94
  81  0.673  0.625  0.281-  23 1.86  11 2.01  35 2.07  55 2.08
  82  0.328  0.625  0.219-  21 1.86  13 2.01  22 2.07  54 2.08
  83  0.503  0.500  0.372-  23 1.83  18 1.83  22 1.93
  84  0.497  0.250  0.628-  38 1.83  25 1.83  36 1.93
  85  0.336  0.625  0.447-   2 1.83  22 1.93  54 1.94
  86  0.664  0.625  0.053-   3 1.83  35 1.93  55 1.94
  87  0.173  0.500  0.280-  34 1.86  22 2.01  13 2.07  17 2.07
  88  0.828  0.500  0.219-  37 1.86  35 2.01  11 2.07  16 2.07
  89  0.003  0.624  0.372-  34 1.83  48 1.83  11 1.93
  90  0.836  0.500  0.447-   6 1.83  11 1.94  16 1.94
  91  0.336  0.376  0.947-  19 1.83  42 1.93  47 1.94
  92  0.673  0.376  0.281-  18 1.86  16 2.01  35 2.07  20 2.08
  93  0.172  0.250  0.781-  10 1.86  47 2.01  46 2.08  40 2.08
  94  0.172  0.000  0.781-  43 1.86  24 2.01  59 2.07  46 2.07
  95  0.828  1.000  0.720-  44 1.86  12 2.01  58 2.07  45 2.07
  96  0.003  0.124  0.872-  43 1.83  10 1.83  45 1.93
  97  0.997  0.124  0.628-  44 1.83   9 1.83  46 1.93
  98  0.836  0.000  0.947-  27 1.82  58 1.94  45 1.94
  99  0.164  0.000  0.553-   1 1.82  46 1.94  59 1.94
 100  0.673  0.125  0.281-  30 1.86  28 2.01  33 2.07  20 2.08
 101  0.328  0.125  0.220-  31 1.86  29 2.02  64 2.04  32 2.07
 102  0.665  0.124  0.553-  30 1.83  12 1.93  36 1.94
 103  0.503  0.000  0.372-  52 1.83  30 1.83  32 1.93
 104  0.336  0.124  0.447-  25 1.82  32 1.93  64 1.97
 105  0.664  0.125  0.053-  26 1.83  33 1.93  20 1.94
 106  0.172  0.000  0.280-   1 1.86  32 2.01  29 2.07  51 2.07
 107  0.828  0.000  0.219-  27 1.86  33 2.01  28 2.07  50 2.07
 108  0.003  0.124  0.372-   1 1.83  14 1.83  28 1.93
 109  0.997  0.124  0.128-  27 1.83  15 1.83  29 1.93
 110  0.836  0.000  0.447-  44 1.83  50 1.94  28 1.94
 111  0.164  0.000  0.053-  43 1.83  29 1.93  51 1.94
 112  0.497  0.000  0.128-  31 1.83  53 1.83  33 1.93
 113  0.336  0.124  0.947-  31 1.83  24 1.94  47 1.94
 114  0.497  0.000  0.628-  61 1.83  25 1.83  12 1.93
[...]
   -.761E+02 0.307E-01 -.144E+02   0.744E+02 -.227E-01 0.167E+02   0.161E+01 -.560E-02 -.214E+01
   -.366E+02 -.506E+01 -.729E+02   0.378E+02 0.484E+01 0.776E+02   -.117E+01 0.214E+00 -.446E+01
   0.433E+02 -.338E+01 0.741E+02   -.446E+02 0.347E+01 -.788E+02   0.121E+01 -.690E-01 0.448E+01
   0.316E+02 -.240E+01 0.707E+02   -.328E+02 0.221E+01 -.754E+02   0.117E+01 0.185E+00 0.441E+01
   -.923E+02 0.290E-02 -.762E+01   0.906E+02 0.415E-02 0.100E+02   0.153E+01 -.546E-02 -.214E+01
   0.682E+02 0.116E+00 0.996E+01   -.666E+02 -.103E+00 -.125E+02   -.148E+01 -.742E-02 0.226E+01
   -.368E+02 0.842E+01 -.725E+02   0.381E+02 -.821E+01 0.772E+02   -.117E+01 -.211E+00 -.445E+01
   0.188E+02 0.145E+02 0.618E+02   -.205E+02 -.142E+02 -.666E+02   0.159E+01 -.296E+00 0.444E+01
   -.546E+02 0.122E+02 -.137E+02   0.524E+02 -.125E+02 0.162E+02   0.201E+01 0.263E+00 -.229E+01
   0.766E+02 0.116E+02 0.103E+01   -.745E+02 -.114E+02 -.377E+01   -.197E+01 -.181E+00 0.244E+01
   0.425E+02 0.255E+00 0.694E+02   -.436E+02 -.233E+00 -.741E+02   0.101E+01 -.231E-01 0.447E+01
   0.742E+02 -.264E+01 0.101E+02   -.723E+02 0.241E+01 -.125E+02   -.175E+01 0.212E+00 0.219E+01
   -.363E+02 0.217E+02 -.716E+02   0.376E+02 -.219E+02 0.768E+02   -.131E+01 0.148E+00 -.489E+01
   -.678E+02 -.272E+01 -.136E+02   0.658E+02 0.242E+01 0.160E+02   0.179E+01 0.264E+00 -.218E+01
   -.373E+02 -.368E+01 -.721E+02   0.386E+02 0.367E+01 0.768E+02   -.123E+01 0.152E-01 -.438E+01
   0.792E+02 -.189E+02 0.300E+02   -.774E+02 0.187E+02 -.327E+02   -.169E+01 0.187E+00 0.248E+01
   -.687E+02 -.862E+01 -.127E+02   0.669E+02 0.840E+01 0.151E+02   0.174E+01 0.205E+00 -.215E+01
   0.722E+02 -.182E+01 0.128E+02   -.701E+02 0.181E+01 -.152E+02   -.198E+01 0.965E-02 0.221E+01
   -.369E+02 -.877E+01 -.724E+02   0.381E+02 0.855E+01 0.771E+02   -.117E+01 0.217E+00 -.445E+01
   0.187E+02 -.148E+02 0.618E+02   -.204E+02 0.145E+02 -.665E+02   0.159E+01 0.308E+00 0.445E+01
   -.545E+02 -.126E+02 -.137E+02   0.523E+02 0.129E+02 0.163E+02   0.200E+01 -.255E+00 -.229E+01
   0.766E+02 -.122E+02 0.939E+00   -.744E+02 0.120E+02 -.369E+01   -.195E+01 0.213E+00 0.244E+01
   -.364E+02 -.221E+02 -.715E+02   0.378E+02 0.223E+02 0.767E+02   -.131E+01 -.152E+00 -.490E+01
   0.416E+02 -.282E+01 0.710E+02   -.429E+02 0.285E+01 -.757E+02   0.116E+01 -.386E-01 0.441E+01
   -.823E+02 0.633E+01 -.119E+02   0.801E+02 -.636E+01 0.143E+02   0.206E+01 0.188E-01 -.223E+01
   0.415E+02 0.271E+01 0.710E+02   -.427E+02 -.275E+01 -.757E+02   0.117E+01 0.235E-01 0.441E+01
   0.449E+02 -.403E-01 0.771E+02   -.462E+02 0.404E-01 -.818E+02   0.116E+01 0.159E-02 0.444E+01
   0.722E+02 0.162E+01 0.127E+02   -.701E+02 -.161E+01 -.152E+02   -.198E+01 -.872E-02 0.221E+01
   0.794E+02 0.185E+02 0.300E+02   -.776E+02 -.183E+02 -.328E+02   -.171E+01 -.180E+00 0.248E+01
   -.690E+02 0.825E+01 -.128E+02   0.670E+02 -.805E+01 0.152E+02   0.176E+01 -.193E+00 -.215E+01
   0.309E+02 0.944E+01 0.781E+02   -.321E+02 -.926E+01 -.828E+02   0.115E+01 -.175E+00 0.447E+01
   0.431E+02 0.284E+01 0.743E+02   -.444E+02 -.295E+01 -.790E+02   0.122E+01 0.933E-01 0.448E+01
   -.372E+02 0.337E+01 -.721E+02   0.385E+02 -.336E+01 0.767E+02   -.124E+01 -.717E-02 -.438E+01
   -.777E+02 -.224E+01 -.152E+02   0.755E+02 0.225E+01 0.176E+02   0.203E+01 -.751E-02 -.212E+01
   0.730E+02 -.197E+01 0.153E+02   -.708E+02 0.198E+01 -.177E+02   -.203E+01 -.106E-01 0.218E+01
   -.362E+02 -.772E+01 -.727E+02   0.374E+02 0.753E+01 0.774E+02   -.111E+01 0.189E+00 -.441E+01
   0.308E+02 -.977E+01 0.780E+02   -.320E+02 0.958E+01 -.828E+02   0.115E+01 0.190E+00 0.447E+01
   -.362E+02 0.161E+00 -.719E+02   0.374E+02 -.145E+00 0.765E+02   -.110E+01 -.144E-01 -.437E+01
   -.747E+02 0.398E+00 -.112E+02   0.730E+02 -.391E+00 0.137E+02   0.160E+01 -.716E-02 -.227E+01
   0.699E+02 0.388E+00 0.115E+02   -.682E+02 -.372E+00 -.140E+02   -.159E+01 -.138E-01 0.225E+01
   -.368E+02 0.521E+01 -.728E+02   0.380E+02 -.498E+01 0.775E+02   -.117E+01 -.217E+00 -.446E+01
   0.317E+02 0.247E+01 0.709E+02   -.329E+02 -.229E+01 -.756E+02   0.118E+01 -.172E+00 0.439E+01
   -.679E+02 0.287E+01 -.138E+02   0.659E+02 -.260E+01 0.162E+02   0.182E+01 -.244E+00 -.218E+01
   0.743E+02 0.241E+01 0.103E+02   -.724E+02 -.222E+01 -.127E+02   -.179E+01 -.175E+00 0.220E+01
   -.356E+02 0.678E+00 -.722E+02   0.368E+02 -.666E+00 0.769E+02   -.114E+01 -.212E-01 -.448E+01
   0.383E+02 0.446E+00 0.725E+02   -.394E+02 -.430E+00 -.773E+02   0.108E+01 -.172E-01 0.443E+01
   -.740E+02 0.336E+00 -.131E+02   0.722E+02 -.326E+00 0.155E+02   0.160E+01 -.846E-02 -.222E+01
   0.707E+02 0.327E+00 0.129E+02   -.689E+02 -.316E+00 -.154E+02   -.160E+01 -.943E-02 0.223E+01
   -.364E+02 0.602E+01 -.729E+02   0.376E+02 -.577E+01 0.776E+02   -.117E+01 -.239E+00 -.442E+01
   0.340E+02 0.417E+01 0.744E+02   -.353E+02 -.395E+01 -.792E+02   0.118E+01 -.210E+00 0.445E+01
   -.705E+02 0.486E+01 -.134E+02   0.685E+02 -.466E+01 0.159E+02   0.180E+01 -.192E+00 -.219E+01
[...]
   -.484E+02 0.418E+00 0.517E+02   0.478E+02 -.436E+00 -.463E+02   0.431E+00 -.638E-01 -.461E+01
   0.501E+02 0.329E+01 -.531E+02   -.495E+02 -.339E+01 0.477E+02   -.396E+00 -.139E-02 0.461E+01
   -.110E+03 0.928E-01 0.924E+02   0.121E+03 -.862E-01 -.920E+02   -.965E+01 -.757E-02 -.347E+00
   0.108E+03 0.146E+00 -.917E+02   -.120E+03 -.144E+00 0.913E+02   0.964E+01 -.237E-02 0.365E+00
   -.190E+02 0.893E+00 -.104E+02   0.273E+02 -.802E+00 0.120E+02   -.694E+01 -.207E+00 -.125E+01
   0.171E+02 0.122E+01 0.106E+02   -.254E+02 -.116E+01 -.121E+02   0.696E+01 -.176E+00 0.124E+01
   -.479E+02 0.105E+00 0.530E+02   0.474E+02 -.106E+00 -.476E+02   0.378E+00 0.136E-02 -.460E+01
   0.472E+02 0.275E+00 -.526E+02   -.466E+02 -.286E+00 0.472E+02   -.385E+00 0.749E-02 0.461E+01
   -.106E+03 0.151E+01 0.924E+02   0.118E+03 -.139E+01 -.919E+02   -.972E+01 -.209E+00 -.353E+00
   0.108E+03 0.168E+01 -.925E+02   -.120E+03 -.160E+01 0.920E+02   0.973E+01 -.173E+00 0.382E+00
   -.170E+02 0.582E-01 -.102E+02   0.253E+02 -.454E-01 0.118E+02   -.691E+01 -.153E-01 -.126E+01
   0.189E+02 0.954E-01 0.111E+02   -.271E+02 -.829E-01 -.127E+02   0.692E+01 -.175E-01 0.127E+01
   -.483E+02 0.307E+01 0.539E+02   0.477E+02 -.319E+01 -.485E+02   0.440E+00 0.229E-01 -.460E+01
   0.496E+02 0.431E+01 -.528E+02   -.490E+02 -.451E+01 0.475E+02   -.426E+00 0.875E-01 0.459E+01
   -.375E+01 -.125E+00 -.547E+01   -.433E-12 0.377E-11 -.497E-13   0.323E+01 0.146E+00 0.484E+01

 POSITION                                       TOTAL-FORCE (eV/Angst)
      1.06796      0.00048      4.32496         0.004834      0.003000      0.012075
      4.87412      7.58225      5.79620         0.003458     -0.005418      0.010491
      6.99005      7.58311      8.65804         0.000233     -0.001354     -0.008001
      1.89395      7.58124      7.12715         0.005794     -0.001343      0.005957
      9.96945      7.58119      7.32601        -0.005965     -0.001190     -0.007742
     10.79597      6.06652      4.33887        -0.001206     -0.003114      0.010656
      1.06627      6.06686     10.11288         0.004187     -0.001311     -0.002181
      9.96935      4.55284      7.32510        -0.006166     -0.000435     -0.006791
     10.80968      3.03361      4.33734         0.003700      0.000256      0.009991
      1.05340      3.03345     10.11561        -0.000555      0.001083     -0.002749
      9.96937      7.58138      1.53744        -0.001419     -0.000805      0.000626
      7.82416     12.13148      5.67665         0.003208      0.008020      0.005823
      1.89441      7.58158      1.33877         0.008424     -0.002765      0.000650
      1.05153      3.03391      4.32931         0.007599      0.000773      0.014942
     10.80942      3.03392     -1.45219        -0.007566      0.000999     -0.006944
      9.97058      4.55371      1.53569        -0.008180     -0.002055      0.005929
      1.88653      4.55582      1.33750        -0.000074     -0.001318     -0.002314
      6.99795      4.55351      2.87145         0.000144      0.000212      0.006019
      4.87408      4.55418      0.00598         0.001905     -0.005285     -0.019339
      7.82707      3.03556     -0.12282        -0.001975     -0.001634      0.000889
      4.87340      7.58380      0.00618        -0.005051     -0.006459     -0.004162
      4.04315      6.06959      2.99674        -0.004822      0.001876     -0.002048
      6.99126      7.58309      2.86886         0.002017     -0.011240      0.008196
      4.04009      0.00157      8.77807        -0.002625      0.003693     -0.006180
      4.87287      1.51768      5.79189         0.001530      0.009025      0.003348
      6.98984      1.51736      8.65746        -0.000294      0.001590     -0.009555
     10.79472     12.13107     -1.45025        -0.007775     -0.002008     -0.011264
      9.97047      1.51475      1.53585        -0.007318      0.002908      0.006961
      1.88604      1.51169      1.33776         0.002041      0.002245     -0.002242
      6.99796      1.51508      2.87153         0.000404      0.000741      0.010050
      4.87471      1.51601      0.00624         0.001008      0.008096     -0.019567
      4.04305     12.13131      2.99695        -0.004672     -0.000058     -0.000862
      7.82428      0.00228     -0.11422        -0.002315      0.002530      0.002010
      1.06807      6.06734      4.32452         0.005963     -0.000939      0.009438
      7.82429      6.06846     -0.11424        -0.003140     -0.007278      0.002434
      7.82587      3.03391      5.66497         0.009862      0.000650      0.003536
     10.79536      6.06836     -1.45016        -0.009676      0.001819     -0.011397
      4.87242      4.55060      5.79170         0.002267     -0.007395      0.004628
      6.99065      4.55300      8.65726         0.000599     -0.001328     -0.008928
      1.89440      4.55296      7.12683         0.005400      0.000297      0.011288
      7.82406      6.06800      5.67642         0.002812     -0.007414      0.006107
      4.04023      6.06697      8.77780        -0.002251     -0.002235     -0.006610
      1.06603      0.00022     10.11327         0.004522      0.001685     -0.003342
     10.79554      0.00056      4.33889        -0.000167      0.004055      0.011383
      9.96906      1.51509      7.32549        -0.005750      0.000123     -0.006700
      1.89426      1.51472      7.12699         0.006113      0.000348      0.010829
      4.03682      3.03434      8.78775        -0.003054      0.001148     -0.009985
      1.05256      9.09998      4.32686         0.005830     -0.001126      0.009081
     10.80952      9.09967     -1.45062         0.004806     -0.000351     -0.014061
      9.96943     10.61876      1.53734        -0.000888      0.001535     -0.000306
      1.89373     10.61818      1.33938         0.009008      0.001095     -0.000178
      6.99223     10.61833      2.86885         0.003660      0.005892      0.009665
      4.87235     10.61870      0.00652        -0.004294      0.004947     -0.005379
      4.03819      9.10109      2.99708        -0.003263     -0.004478      0.007960
      7.82645      9.10146     -0.12280         0.001966     -0.003180     -0.005704
      1.05329      9.09942     10.11547        -0.002996      0.000390     -0.004216
     10.80985      9.09937      4.33805         0.005714     -0.000055      0.008941
      9.96967     10.61820      7.32571        -0.005886      0.001820     -0.007794
      1.89325     10.61830      7.12789         0.006958      0.001588      0.004600
      6.99108     10.61930      8.65797         0.000246     -0.000058     -0.008171
[...]
      5.96515      9.10128      2.84527        -0.002817      0.001044     -0.000215
      3.88719     10.62256      1.58460        -0.002334      0.000030      0.008219
      7.97710     10.62147      1.29081         0.004375     -0.001829     -0.003364
      1.94205      9.10008      5.92506        -0.005831      0.000292     -0.012715
      9.92112      9.10002      8.52842         0.006269      0.001381      0.015624
     11.82864     10.62375      4.36332         0.000698      0.001009      0.000623
      0.03395     10.62324     10.09046         0.005910      0.003124      0.002709
      9.81731      9.09919      5.91453         0.001589      0.000704     -0.005510
      2.04586      9.10007      8.53917        -0.000017      0.000576      0.004927
      7.87902     10.62362      4.46699        -0.003731      0.000484     -0.016340
      3.98497     10.62484      9.98669         0.000329      0.001554      0.014951
      5.89918      9.10105      5.81861        -0.001939      0.000275     -0.000679
      5.96455      9.10182      8.63507         0.000868     -0.000132      0.001901
      3.88632     10.62093      7.37362         0.000486     -0.000573     -0.001444
      7.97709     10.62080      7.08047        -0.002387      0.001274      0.002034
    total drift:                               -0.176065      0.043666     -0.024776

  FREE ENERGIE OF THE ION-ELECTRON SYSTEM (eV)
  free  energy   TOTEN  =     -1522.38713723 eV

  energy  without entropy=    -1522.38713723  energy(sigma->0) =    -1522.38713723

 d Force =-0.9727216E-06[-0.211E-05, 0.163E-06]  d Energy = 0.2694956E-04-0.279E-04
 d Force = 0.2138962E-02[ 0.214E-02, 0.214E-02]  d Ewald  = 0.2138963E-02-0.844E-09

 reached required accuracy - stopping structural energy minimisation
 writing wavefunctions

 total charge

[...]

 magnetization (x)

# of ion       s       p       d       tot
    1        0.000   0.000   0.000   0.000
    2        0.000   0.000   0.000   0.000
    3       -0.000  -0.000  -0.000  -0.000
    4        0.000   0.000   0.000   0.000
    5        0.000  -0.000  -0.000   0.000
    6       -0.000   0.000  -0.000  -0.000
    7        0.000   0.000  -0.000  -0.000
    8        0.000  -0.000   0.000   0.000
    9        0.000  -0.000  -0.000  -0.000
   10        0.000   0.000   0.000   0.000
   11        0.000   0.000   0.000   0.000
   12        0.000  -0.000   0.000   0.000
   13       -0.000  -0.000   0.000  -0.000
   14        0.001   0.002   0.000   0.003
   15        0.000   0.000   0.000   0.000
   16        0.000   0.000   0.000   0.000
   17        0.002   0.001   0.000   0.003
   18        0.001   0.001   0.001   0.003
   19        0.001   0.001   0.000   0.002
   20       -0.000  -0.000   0.000   0.000
   21       -0.000   0.000   0.000  -0.000
   22        0.003   0.001   0.000   0.005
   23        0.000   0.000   0.000   0.000
   24        0.000   0.000   0.000   0.000
   25        0.002   0.002   0.000   0.004
   26        0.000  -0.000   0.000   0.000
   27        0.000  -0.000  -0.000  -0.000
   28        0.000   0.000   0.000   0.000
   29        0.002   0.001   0.000   0.003
   30        0.001   0.001   0.001   0.003
   31        0.001   0.001   0.000   0.002
   32        0.003   0.001   0.000   0.005
   33        0.000  -0.000  -0.000   0.000
   34        0.000   0.000   0.000   0.000
   35        0.000  -0.000  -0.000   0.000
   36       -0.000  -0.000   0.000  -0.000
   37        0.000  -0.000  -0.000  -0.000
   38        0.002   0.002   0.000   0.004
   39        0.000  -0.000   0.000   0.000
   40       -0.000   0.000   0.000   0.000
   41        0.000  -0.000   0.000   0.000
   42        0.000   0.000   0.000   0.000
   43        0.000   0.000  -0.000  -0.000
   44       -0.000   0.000  -0.000  -0.000
   45        0.000  -0.000  -0.000   0.000
   46       -0.000  -0.000   0.000   0.000
   47        0.000  -0.000  -0.000   0.000
   48        0.000  -0.000  -0.000  -0.000
   49        0.000   0.000  -0.000   0.000
   50        0.000   0.000   0.000   0.000
   51       -0.000  -0.000   0.000  -0.000
   52        0.000   0.000   0.000   0.000
   53       -0.000   0.000   0.000   0.000
   54        0.000  -0.000  -0.000  -0.000
   55        0.000   0.000   0.000   0.000
   56       -0.000   0.000  -0.000   0.000
   57        0.000   0.000  -0.000   0.000
   58        0.000   0.000  -0.000   0.000
   59        0.000   0.000   0.000   0.000
   60        0.000   0.000  -0.000   0.000
[...]
  146        0.000   0.000   0.000   0.000
  147        0.000   0.000   0.000   0.000
  148        0.000   0.000   0.000   0.000
  149       -0.000   0.000   0.000   0.000
  150        0.000   0.000   0.000   0.000
  151        0.000  -0.000   0.000  -0.000
  152       -0.000  -0.000   0.000  -0.000
  153        0.000   0.000   0.000   0.000
  154        0.000   0.000   0.000   0.000
  155        0.000   0.000   0.000   0.000
  156        0.000   0.000   0.000   0.000
  157        0.000   0.000   0.000   0.000
  158       -0.000  -0.000   0.000  -0.000
  159        0.000   0.000   0.000   0.000
  160        0.000  -0.000   0.000  -0.000
tot          0.032   0.015   2.820   2.866