 vasp.5.4.4.18Apr17-6-g9f103f2a35 (build Jun 06 2017 17:32:29) complex

 executed on      LLNL_Quartz_ifc date 2021.09.07  08:09:36

 INCAR:
 POTCAR:   PAW_PBE Ga_d 06Sep2000
 POTCAR:   PAW_PBE Ir 06Sep2000
 POTCAR:   PAW_PBE O 08Apr2002

 POTCAR:   PAW_PBE Ga_d 06Sep2000
   VRHFIN =Ga: s2p1

   TITEL  = PAW_PBE Ga_d 06Sep2000
   POMASS =   69.723; ZVAL   =   13.000    mass and valenz
   ENMAX  =  282.697; ENMIN  =  212.022 eV
   QCUT   =   -4.558; QGAM   =    9.117    optimization parameters

   Description
     l     E      TYP  RCUT    TYP  RCUT
     2   .000     23  2.300
     2  -.400     23  2.300
     0   .000     23  2.300
     0   .000     23  2.300
     1   .000     23  2.300
     1   .000     23  2.300
     3  -.100      7  2.300

 POTCAR:   PAW_PBE Ir 06Sep2000
   VRHFIN =Ir: s1d8

   TITEL  = PAW_PBE Ir 06Sep2000
   POMASS =  192.220; ZVAL   =    9.000    mass and valenz
   ENMAX  =  210.870; ENMIN  =  158.153 eV
   QCUT   =   -3.937; QGAM   =    7.874    optimization parameters

[...]

 POTCAR:   PAW_PBE O 08Apr2002
   VRHFIN =O: s2p4

   TITEL  = PAW_PBE O 08Apr2002
   POMASS =   16.000; ZVAL   =    6.000    mass and valenz
   ENMAX  =  400.000; ENMIN  =  300.000 eV
   QCUT   =   -5.520; QGAM   =   11.041    optimization parameters

   Description
     l     E      TYP  RCUT    TYP  RCUT
     0   .000     23  1.200
     0  -.700     23  1.200
     1   .000     23  1.520
     1   .600     23  1.520
     2   .000      7  1.500

 Optimization of the real space projectors (new method)

 maximal supplied QI-value         = 16.25
 optimisation between [QCUT,QGAM] = [ 10.24, 20.48] = [ 29.35,117.42] Ry
 Optimized for a Real-space Cutoff    1.38 Angstroem

   l    n(q)    QCUT    max X(q) W(low)/X(q) W(high)/X(q)  e(spline)
   2      7    10.239     6.328    0.33E-04    0.68E-04    0.30E-07
   2      7    10.239     9.625    0.20E-03    0.23E-03    0.80E-07
   0      8    10.239     9.711    0.17E-04    0.17E-04    0.13E-07
   0      8    10.239    32.764    0.56E-04    0.14E-03    0.62E-07
   1      8    10.239     7.413    0.78E-04    0.28E-04    0.38E-07
   1      8    10.239    31.472    0.43E-03    0.30E-03    0.73E-07
 Optimization of the real space projectors (new method)

[...]

   l    n(q)    QCUT    max X(q) W(low)/X(q) W(high)/X(q)  e(spline)
   2      9    10.197     3.989    0.32E-04    0.18E-04    0.62E-07
   2      9    10.197    41.237    0.35E-03    0.14E-03    0.40E-06
   0     10    10.197    14.164    0.17E-04    0.12E-05    0.12E-07
   0     10    10.197    44.257    0.49E-04    0.25E-04    0.27E-06
   1     10    10.197     7.849    0.10E-04    0.77E-05    0.25E-07
   1     10    10.197    11.007    0.35E-04    0.49E-04    0.91E-07
 Optimization of the real space projectors (new method)

 maximal supplied QI-value         = 24.76
 optimisation between [QCUT,QGAM] = [ 10.15, 20.30] = [ 28.85,115.39] Ry
 Optimized for a Real-space Cutoff    1.30 Angstroem

   l    n(q)    QCUT    max X(q) W(low)/X(q) W(high)/X(q)  e(spline)
   0      8    10.150     4.192    0.55E-04    0.58E-04    0.78E-07
   0      8    10.150     8.473    0.46E-03    0.68E-03    0.23E-06
   1      7    10.150     2.474    0.11E-03    0.93E-04    0.33E-07
   1      7    10.150     3.912    0.46E-03    0.50E-03    0.15E-06
 PAW_PBE Ga_d 06Sep2000                 :
 PAW_PBE Ir 06Sep2000                   :
 PAW_PBE O 08Apr2002                    :

 POSCAR: Ga Ir  O
  positions in direct lattice
  velocities in cartesian coordinates
 exchange correlation table for  LEXCH =        8
   RHO(1)=    0.500       N(1)  =     2000
   RHO(2)=  100.500       N(2)  =     4000

 ion  position               nearest neighbor table
   1  0.090  1.000  0.396-  99 1.83 140 1.83 108 1.83 106 1.86
   2  0.411  0.625  0.604-  85 1.83  72 1.83 157 1.83 121 1.86
   3  0.589  0.625  0.896-  86 1.83  71 1.83 158 1.83 136 1.86
   4  0.160  0.625  0.655-  78 1.93  80 1.93 149 1.94 121 2.01  75 2.08 154 2.08
   5  0.841  0.625  0.844-  77 1.93  79 1.94 150 1.94 136 2.01  76 2.07 153 2.08
   6  0.910  0.500  0.604-  90 1.83  78 1.83 118 1.83  76 1.86
   7  0.090  0.500  0.896-  68 1.82  77 1.83 117 1.83  75 1.86
   8  0.840  0.375  0.844- 117 1.93 119 1.94  79 1.94  65 2.01  76 2.07 116 2.08
   9  0.911  0.250  0.604- 131 1.83 118 1.83  97 1.83 116 1.86
  10  0.089  0.250  0.896- 132 1.83 117 1.83  96 1.83  93 1.86
  11  0.841  0.625  0.344-  89 1.93  90 1.94 138 1.94  81 2.01  88 2.07 141 2.08
  12  0.660  1.000  0.657- 102 1.93 114 1.93 155 1.94  95 2.01 160 2.06 133 2.07
  13  0.159  0.625  0.156-  70 1.93  68 1.94 137 1.94  82 2.01  87 2.07 142 2.08
  14  0.088  0.250  0.398- 120 1.82 108 1.83 129 1.83 127 1.86
  15  0.911  0.250  0.104- 119 1.83 130 1.83 109 1.83 128 1.86
  16  0.841  0.375  0.344- 129 1.93  90 1.94 131 1.94  92 2.00  88 2.07 128 2.08
  17  0.158  0.376  0.155- 130 1.92  68 1.93 132 1.94 122 2.02  87 2.07 127 2.08  64 3.08
  18  0.592  0.377  0.397- 123 1.81 135 1.82  83 1.83  92 1.86
  19  0.411  0.376  0.103-  91 1.82  69 1.83 124 1.83 122 1.87
  20  0.660  0.250  0.156- 126 1.94 105 1.94 124 1.94 128 2.01  92 2.08 100 2.08
  21  0.411  0.625  0.104-  73 1.83  69 1.83 145 1.83  82 1.86
  22  0.341  0.502  0.344- 125 1.92  85 1.92  83 1.94  87 2.02  82 2.06 122 2.06  64 3.06
  23  0.590  0.625  0.396-  74 1.83  83 1.83 146 1.83  81 1.86
  24  0.341  0.000  0.844- 115 1.93 156 1.93 113 1.94  94 2.01 134 2.07 159 2.07
  25  0.411  0.125  0.604- 104 1.82  84 1.83 114 1.83 134 1.87
  26  0.589  0.125  0.896- 105 1.83 115 1.83  67 1.83 133 1.86
  27  0.910  0.999  0.103-  98 1.82 139 1.83 109 1.83 107 1.86
  28  0.841  0.125  0.344- 108 1.93 110 1.94 131 1.94 100 2.00 107 2.07 128 2.08
  29  0.158  0.124  0.155- 109 1.92 111 1.93 132 1.94 101 2.02 106 2.07 127 2.08  64 3.08
  30  0.592  0.123  0.397- 123 1.81 102 1.83 103 1.83 100 1.86
  31  0.412  0.125  0.103- 113 1.82 112 1.83 124 1.83 101 1.87
  32  0.341  0.998  0.344- 104 1.92 144 1.92 103 1.94 106 2.02 147 2.06 101 2.06  64 3.06
  33  0.660  1.000  0.156- 112 1.93 143 1.93 105 1.93 107 2.01 100 2.06 148 2.07
  34  0.090  0.500  0.396-  80 1.83  89 1.83 129 1.83  87 1.86
  35  0.660  0.500  0.156-  69 1.93  86 1.93 126 1.93  88 2.01  92 2.06  81 2.07
  36  0.660  0.250  0.655-  84 1.93 135 1.94 102 1.94 116 2.01 133 2.09  65 2.09
  37  0.910  0.501  0.103-  79 1.82  70 1.83 130 1.83  88 1.86
  38  0.411  0.375  0.604- 125 1.82  84 1.83  72 1.83  66 1.87
  39  0.589  0.375  0.896- 126 1.83  71 1.83  67 1.83  65 1.86
  40  0.160  0.375  0.656- 118 1.93  80 1.94 120 1.94  66 2.01  75 2.07  93 2.08
  41  0.660  0.501  0.657- 135 1.93  72 1.93  74 1.94  76 2.01 136 2.06  65 2.07
  42  0.341  0.500  0.844-  71 1.93  73 1.93  91 1.94  75 2.01  66 2.07 121 2.07
  43  0.090  1.000  0.896- 111 1.82 152 1.83  96 1.83  94 1.86
  44  0.910  0.000  0.604- 110 1.83 151 1.83  97 1.83  95 1.86
  45  0.840  0.125  0.844-  96 1.93  98 1.94 119 1.94 133 2.01  95 2.07 116 2.08
  46  0.160  0.125  0.656-  97 1.93  99 1.94 120 1.94 134 2.01  94 2.07  93 2.08
  47  0.340  0.250  0.845-  67 1.93 113 1.94  91 1.94  93 2.01  66 2.08 134 2.08
  48  0.088  0.750  0.396- 149 1.83 140 1.83  89 1.83 142 1.86
  49  0.911  0.750  0.104- 150 1.83  70 1.83 139 1.83 141 1.86
  50  0.841  0.875  0.344- 140 1.93 110 1.94 138 1.94 148 2.01 107 2.07 141 2.08
  51  0.159  0.875  0.156- 139 1.93 111 1.94 137 1.94 147 2.01 106 2.07 142 2.08
  52  0.590  0.875  0.396- 103 1.83 155 1.83 146 1.83 148 1.86
  53  0.411  0.875  0.104- 156 1.83 112 1.83 145 1.83 147 1.86
  54  0.340  0.750  0.344-  85 1.93 144 1.93 146 1.94 142 2.01 147 2.08  82 2.08
  55  0.660  0.750  0.155- 145 1.93 143 1.94  86 1.94 141 2.01 148 2.08  81 2.08
  56  0.089  0.750  0.896- 137 1.83 152 1.83  77 1.83 154 1.86
  57  0.911  0.750  0.604- 138 1.83 151 1.83  78 1.83 153 1.86
  58  0.841  0.875  0.844- 152 1.93  98 1.94 150 1.94 160 2.01  95 2.07 153 2.08
  59  0.159  0.875  0.655- 151 1.93  99 1.93 149 1.94 159 2.01  94 2.08 154 2.08
  60  0.589  0.875  0.896- 143 1.83 115 1.83 158 1.83 160 1.86
  61  0.411  0.875  0.604- 144 1.83 114 1.83 157 1.83 159 1.86
  62  0.340  0.750  0.844- 158 1.94 156 1.94  73 1.94 154 2.01 159 2.08 121 2.08
  63  0.660  0.750  0.655- 157 1.93 155 1.94  74 1.94 153 2.01 136 2.08 160 2.08
  64  0.339  0.250  0.336- 123 2.03 127 2.04 125 2.05 104 2.05 122 2.07 101 2.07  32 3.06  22 3.06
                            17 3.08  29 3.08
  65  0.673  0.375  0.781-  39 1.86   8 2.01  41 2.07  36 2.09
  66  0.328  0.376  0.720-  38 1.87  40 2.01  42 2.07  47 2.08
  67  0.503  0.250  0.873-  39 1.83  26 1.83  47 1.93
  68  0.164  0.500  0.052-   7 1.82  17 1.93  13 1.94
  69  0.497  0.500  0.128-  19 1.83  21 1.83  35 1.93
  70  0.997  0.625  0.127-  37 1.83  49 1.83  13 1.93
  71  0.503  0.500  0.872-   3 1.83  39 1.83  42 1.93
  72  0.498  0.500  0.629-   2 1.83  38 1.83  41 1.93
  73  0.336  0.625  0.947-  21 1.83  42 1.93  62 1.94
  74  0.664  0.625  0.553-  23 1.83  63 1.94  41 1.94
  75  0.173  0.500  0.781-   7 1.86  42 2.01  40 2.07   4 2.08
  76  0.828  0.500  0.720-   6 1.86  41 2.01   5 2.07   8 2.07
  77  0.003  0.625  0.872-   7 1.83  56 1.83   5 1.93
  78  0.997  0.624  0.628-   6 1.83  57 1.83   4 1.93
  79  0.835  0.500  0.947-  37 1.82   5 1.94   8 1.94
  80  0.164  0.500  0.553-  34 1.83   4 1.93  40 1.94
  81  0.673  0.625  0.281-  23 1.86  11 2.01  35 2.07  55 2.08
  82  0.328  0.625  0.219-  21 1.86  13 2.01  22 2.06  54 2.08
  83  0.504  0.500  0.372-  23 1.83  18 1.83  22 1.94
  84  0.497  0.250  0.628-  38 1.83  25 1.83  36 1.93
  85  0.336  0.626  0.448-   2 1.83  22 1.92  54 1.93
  86  0.664  0.625  0.053-   3 1.83  35 1.93  55 1.94
  87  0.172  0.501  0.280-  34 1.86  22 2.02  13 2.07  17 2.07
  88  0.828  0.500  0.219-  37 1.86  35 2.01  11 2.07  16 2.07
  89  0.003  0.624  0.372-  34 1.83  48 1.83  11 1.93
  90  0.835  0.500  0.447-   6 1.83  11 1.94  16 1.94
  91  0.336  0.376  0.947-  19 1.82  42 1.94  47 1.94
  92  0.673  0.376  0.280-  18 1.86  16 2.00  35 2.06  20 2.08
  93  0.173  0.250  0.781-  10 1.86  47 2.01  40 2.08  46 2.08
  94  0.172  0.000  0.781-  43 1.86  24 2.01  46 2.07  59 2.08
  95  0.828  1.000  0.720-  44 1.86  12 2.01  58 2.07  45 2.07
  96  0.003  0.124  0.873-  43 1.83  10 1.83  45 1.93
  97  0.997  0.124  0.628-  44 1.83   9 1.83  46 1.93
  98  0.835  1.000  0.947-  27 1.82  58 1.94  45 1.94
  99  0.164  0.000  0.553-   1 1.83  59 1.93  46 1.94
 100  0.673  0.124  0.280-  30 1.86  28 2.00  33 2.06  20 2.08
 101  0.327  0.120  0.218-  31 1.87  29 2.02  32 2.06  64 2.07
 102  0.666  0.124  0.554-  30 1.83  12 1.93  36 1.94
 103  0.504  1.000  0.372-  52 1.83  30 1.83  32 1.94
 104  0.336  0.120  0.448-  25 1.82  32 1.92  64 2.05
 105  0.664  0.125  0.053-  26 1.83  33 1.93  20 1.94
 106  0.172  0.999  0.280-   1 1.86  32 2.02  51 2.07  29 2.07
 107  0.828  1.000  0.219-  27 1.86  33 2.01  50 2.07  28 2.07
 108  0.003  0.124  0.373-   1 1.83  14 1.83  28 1.93
 109  0.996  0.124  0.127-  27 1.83  15 1.83  29 1.92
 110  0.835  0.000  0.447-  44 1.83  50 1.94  28 1.94
 111  0.164  1.000  0.052-  43 1.82  29 1.93  51 1.94
 112  0.497  1.000  0.128-  31 1.83  53 1.83  33 1.93
 113  0.336  0.124  0.947-  31 1.82  24 1.94  47 1.94
[...]
   -.910E+02 0.196E+00 -.240E+02   0.893E+02 -.186E+00 0.264E+02   0.150E+01 -.937E-02 -.218E+01
   -.376E+02 0.128E+01 -.738E+02   0.389E+02 -.147E+01 0.785E+02   -.120E+01 0.177E+00 -.431E+01
   0.588E+02 -.159E+02 0.800E+02   -.601E+02 0.162E+02 -.849E+02   0.117E+01 -.220E+00 0.448E+01
   0.199E+02 0.123E+02 0.669E+02   -.214E+02 -.125E+02 -.714E+02   0.139E+01 0.201E+00 0.416E+01
   -.160E+03 0.212E+00 0.208E+02   0.158E+03 -.204E+00 -.184E+02   0.171E+01 -.766E-02 -.223E+01
   0.532E+02 0.249E+00 0.187E+01   -.518E+02 -.237E+00 -.444E+01   -.127E+01 -.106E-01 0.231E+01
   -.393E+02 0.172E+02 -.704E+02   0.405E+02 -.169E+02 0.751E+02   -.109E+01 -.245E+00 -.433E+01
   -.405E+02 0.610E+02 0.208E+02   0.386E+02 -.604E+02 -.254E+02   0.179E+01 -.578E+00 0.433E+01
   0.101E+02 0.395E+02 -.127E+02   -.128E+02 -.410E+02 0.154E+02   0.242E+01 0.133E+01 -.240E+01
   0.904E+02 0.498E+02 -.546E+02   -.883E+02 -.493E+02 0.516E+02   -.189E+01 -.480E+00 0.275E+01
   0.655E+02 0.242E+00 0.526E+02   -.663E+02 -.234E+00 -.574E+02   0.753E+00 -.715E-02 0.445E+01
   0.779E+02 0.119E+02 0.179E+01   -.759E+02 -.121E+02 -.442E+01   -.184E+01 0.122E+00 0.235E+01
   -.403E+02 0.108E+03 -.697E+02   0.416E+02 -.109E+03 0.751E+02   -.122E+01 0.639E+00 -.508E+01
   -.555E+02 0.106E+02 -.142E+02   0.534E+02 -.111E+02 0.166E+02   0.194E+01 0.421E+00 -.218E+01
   -.369E+02 -.142E+02 -.722E+02   0.382E+02 0.142E+02 0.768E+02   -.124E+01 -.568E-02 -.425E+01
   0.957E+02 -.596E+02 0.863E+02   -.940E+02 0.591E+02 -.893E+02   -.158E+01 0.508E+00 0.269E+01
   -.602E+02 -.157E+02 -.123E+02   0.585E+02 0.155E+02 0.147E+02   0.163E+01 0.197E+00 -.213E+01
   0.649E+02 -.120E+02 0.843E+01   -.629E+02 0.121E+02 -.109E+02   -.191E+01 -.206E-01 0.219E+01
   -.393E+02 -.173E+02 -.704E+02   0.405E+02 0.170E+02 0.751E+02   -.109E+01 0.245E+00 -.433E+01
   -.406E+02 -.612E+02 0.207E+02   0.387E+02 0.606E+02 -.254E+02   0.179E+01 0.596E+00 0.434E+01
   0.102E+02 -.398E+02 -.126E+02   -.128E+02 0.413E+02 0.153E+02   0.241E+01 -.133E+01 -.240E+01
   0.902E+02 -.500E+02 -.547E+02   -.882E+02 0.495E+02 0.517E+02   -.187E+01 0.492E+00 0.275E+01
   -.402E+02 -.108E+03 -.694E+02   0.415E+02 0.109E+03 0.749E+02   -.121E+01 -.633E+00 -.510E+01
   0.531E+02 -.153E+02 0.658E+02   -.543E+02 0.154E+02 -.703E+02   0.110E+01 -.917E-01 0.419E+01
   -.105E+03 0.333E+02 -.390E+01   0.103E+03 -.332E+02 0.617E+01   0.194E+01 -.665E-01 -.206E+01
   0.530E+02 0.149E+02 0.656E+02   -.542E+02 -.150E+02 -.701E+02   0.110E+01 0.106E+00 0.419E+01
   0.740E+02 0.657E-01 0.928E+02   -.750E+02 -.601E-01 -.975E+02   0.934E+00 -.290E-02 0.431E+01
   0.650E+02 0.117E+02 0.853E+01   -.629E+02 -.118E+02 -.110E+02   -.191E+01 0.262E-01 0.219E+01
   0.958E+02 0.592E+02 0.864E+02   -.941E+02 -.587E+02 -.894E+02   -.160E+01 -.493E+00 0.268E+01
   -.604E+02 0.154E+02 -.123E+02   0.586E+02 -.153E+02 0.147E+02   0.165E+01 -.177E+00 -.213E+01
   0.181E+02 0.220E+02 0.959E+02   -.193E+02 -.217E+02 -.101E+03   0.112E+01 -.293E+00 0.433E+01
   0.587E+02 0.155E+02 0.801E+02   -.600E+02 -.158E+02 -.850E+02   0.117E+01 0.241E+00 0.448E+01
   -.369E+02 0.139E+02 -.721E+02   0.382E+02 -.139E+02 0.767E+02   -.123E+01 0.118E-01 -.425E+01
   -.864E+02 -.122E+02 -.186E+02   0.842E+02 0.122E+02 0.210E+02   0.195E+01 0.413E-01 -.219E+01
   0.702E+02 -.953E+01 0.194E+02   -.680E+02 0.947E+01 -.218E+02   -.200E+01 0.482E-01 0.218E+01
   -.360E+02 -.127E+02 -.728E+02   0.371E+02 0.126E+02 0.775E+02   -.104E+01 0.144E+00 -.432E+01
   0.179E+02 -.223E+02 0.959E+02   -.191E+02 0.219E+02 -.101E+03   0.112E+01 0.304E+00 0.433E+01
   -.363E+02 0.287E+00 -.722E+02   0.374E+02 -.272E+00 0.767E+02   -.108E+01 -.154E-01 -.421E+01
   -.814E+02 0.259E+00 -.990E+01   0.796E+02 -.249E+00 0.125E+02   0.161E+01 -.679E-02 -.229E+01
   0.670E+02 0.242E+00 0.946E+01   -.652E+02 -.231E+00 -.119E+02   -.159E+01 -.839E-02 0.223E+01
   -.378E+02 -.117E+01 -.737E+02   0.391E+02 0.137E+01 0.783E+02   -.120E+01 -.182E+00 -.432E+01
   0.200E+02 -.125E+02 0.669E+02   -.215E+02 0.127E+02 -.714E+02   0.139E+01 -.193E+00 0.416E+01
   -.556E+02 -.105E+02 -.143E+02   0.535E+02 0.110E+02 0.168E+02   0.196E+01 -.420E+00 -.218E+01
   0.780E+02 -.120E+02 0.190E+01   -.760E+02 0.122E+02 -.453E+01   -.186E+01 -.112E+00 0.234E+01
   -.373E+02 0.308E+00 -.711E+02   0.385E+02 -.295E+00 0.760E+02   -.108E+01 -.104E-01 -.461E+01
   0.449E+02 0.275E+00 0.716E+02   -.459E+02 -.265E+00 -.761E+02   0.970E+00 -.683E-02 0.424E+01
   -.803E+02 0.236E+00 -.140E+02   0.785E+02 -.228E+00 0.165E+02   0.158E+01 -.539E-02 -.225E+01
   0.686E+02 0.309E+00 0.144E+02   -.669E+02 -.295E+00 -.169E+02   -.156E+01 -.112E-01 0.228E+01
   -.366E+02 0.240E+01 -.734E+02   0.378E+02 -.211E+01 0.780E+02   -.117E+01 -.271E+00 -.428E+01
   0.277E+02 -.342E+01 0.785E+02   -.290E+02 0.368E+01 -.833E+02   0.122E+01 -.240E+00 0.449E+01
   -.646E+02 -.314E+00 -.138E+02   0.626E+02 0.533E+00 0.163E+02   0.173E+01 -.201E+00 -.222E+01
[...]
   -.483E+02 -.819E+01 0.528E+02   0.475E+02 0.787E+01 -.479E+02   0.585E+00 0.184E+00 -.418E+01
   0.542E+02 -.821E+00 -.538E+02   -.537E+02 0.758E+00 0.484E+02   -.374E+00 -.296E-01 0.458E+01
   -.112E+03 0.140E+00 0.934E+02   0.124E+03 -.139E+00 -.930E+02   -.961E+01 -.510E-02 -.287E+00
   0.109E+03 0.132E+00 -.914E+02   -.120E+03 -.130E+00 0.909E+02   0.965E+01 -.504E-02 0.363E+00
   -.214E+02 -.182E+01 -.895E+01   0.296E+02 0.194E+01 0.105E+02   -.693E+01 -.234E+00 -.121E+01
   0.150E+02 -.836E+00 0.102E+02   -.233E+02 0.875E+00 -.118E+02   0.698E+01 -.168E+00 0.125E+01
   -.477E+02 0.985E-01 0.537E+02   0.472E+02 -.972E-01 -.483E+02   0.349E+00 -.204E-02 -.456E+01
   0.451E+02 0.168E+00 -.519E+02   -.445E+02 -.170E+00 0.465E+02   -.370E+00 -.132E-02 0.461E+01
   -.102E+03 -.388E+01 0.932E+02   0.113E+03 0.418E+01 -.927E+02   -.968E+01 -.360E+00 -.358E+00
   0.109E+03 -.235E+01 -.940E+02   -.120E+03 0.245E+01 0.934E+02   0.975E+01 -.203E+00 0.410E+00
   -.151E+02 0.473E-01 -.818E+01   0.233E+02 -.316E-01 0.969E+01   -.695E+01 -.205E-01 -.122E+01
   0.213E+02 0.997E-01 0.109E+02   -.295E+02 -.924E-01 -.125E+02   0.695E+01 -.121E-01 0.128E+01
   -.477E+02 -.101E+01 0.564E+02   0.470E+02 0.875E+00 -.511E+02   0.496E+00 0.298E-01 -.453E+01
   0.523E+02 0.294E+01 -.527E+02   -.517E+02 -.328E+01 0.474E+02   -.420E+00 0.204E+00 0.449E+01
   -.114E+02 -.144E+00 -.665E+01   0.426E-13 0.525E-12 0.135E-11   0.974E+01 0.133E+00 0.599E+01

 POSITION                                       TOTAL-FORCE (eV/Angst)
      1.06950     12.13163      4.32599         0.004794      0.002995     -0.007850
      4.87605      7.58411      5.79796        -0.001235     -0.012938     -0.000514
      6.98918      7.58299      8.65799         0.001328     -0.003033     -0.001025
      1.89230      7.58203      7.12449        -0.000263      0.001084      0.013317
      9.96894      7.58226      7.32520         0.005299     -0.004928     -0.002811
     10.79445      6.06644      4.33910         0.000254     -0.001085      0.006241
      1.06378      6.06855     10.11011        -0.002860      0.004067     -0.001615
      9.96879      4.55273      7.32569        -0.000665      0.002216     -0.003284
     10.81034      3.03385      4.33918        -0.007004      0.000126      0.006175
      1.05336      3.03388     10.12018         0.003107      0.000640     -0.015716
      9.97015      7.58210      1.53686         0.004405     -0.002869      0.001215
      7.82653     12.12767      5.68163        -0.004571      0.015847     -0.005160
      1.88930      7.58368      1.33905         0.000156      0.002555      0.006812
      1.04765      3.03406      4.34558        -0.003594     -0.000971     -0.009400
     10.80664      3.03401     -1.45066        -0.018041     -0.000592     -0.008063
      9.97324      4.55484      1.53555        -0.009115     -0.003200      0.003517
      1.86841      4.56737      1.33092         0.000963      0.002114     -0.014575
      7.02038      4.57143      2.87601         0.000230     -0.002878      0.007568
      4.88019      4.55742     -0.00251         0.002546     -0.016323     -0.005220
      7.82825      3.03461     -0.11936        -0.008803     -0.000240      0.020161
      4.87338      7.58467      0.00551        -0.001001     -0.014224     -0.000095
      4.04448      6.09555      2.99280        -0.003637     -0.011496     -0.013517
      6.99520      7.58758      2.86795        -0.002572     -0.020739      0.009360
      4.04054      0.00045      8.77616        -0.001645      0.003520      0.001152
      4.87802      1.51610      5.79326         0.003217      0.006213     -0.009569
      6.98961      1.51766      8.65752         0.007861      0.000271      0.005916
     10.78983     12.12635     -1.45162        -0.002136      0.011413     -0.003577
      9.97320      1.51372      1.53582        -0.009241      0.002689      0.003170
      1.86852      1.50086      1.33048         0.002154     -0.001858     -0.014877
      7.02013      1.49721      2.87598        -0.000805     -0.001323      0.006551
      4.88087      1.51161     -0.00276         0.002824      0.015066     -0.002475
      4.04473     12.10467      2.99248        -0.006149      0.011609     -0.010429
      7.82668     12.13134     -0.11448        -0.003131      0.014181      0.006121
      1.06941      6.06815      4.32614         0.003702     -0.002731     -0.007512
      7.82656      6.06926     -0.11440        -0.002930     -0.014522      0.005662
      7.82689      3.03416      5.66175         0.006317      0.000495     -0.002634
     10.78987      6.07334     -1.45146        -0.001542     -0.011452     -0.006069
      4.87733      4.55320      5.79344         0.004769     -0.008223     -0.008955
      6.99045      4.55220      8.65749         0.008096     -0.000051      0.004800
      1.89547      4.55492      7.13261        -0.001156      0.003365     -0.014831
      7.82647      6.07233      5.68155        -0.002142     -0.014468     -0.005016
      4.04063      6.06830      8.77639        -0.001574     -0.006036     -0.000825
      1.06353     12.13096     10.11004         0.002000     -0.000752     -0.001196
     10.79422      0.00126      4.33915        -0.000144      0.000991      0.004226
      9.96862      1.51570      7.32607        -0.000344     -0.000116     -0.003399
      1.89558      1.51308      7.13216        -0.001754     -0.001655     -0.015791
      4.03652      3.03454      8.78635         0.000985     -0.000254     -0.008410
      1.04939      9.09996      4.32488         0.006575      0.000591      0.010125
     10.80801      9.09985     -1.45235         0.002700      0.000462     -0.004486
      9.97036     10.61833      1.53650         0.004586      0.002957      0.000352
      1.88906     10.61618      1.33920        -0.000463     -0.000718      0.006883
      6.99626     10.61333      2.86779        -0.002322      0.021207      0.008958
      4.87258     10.61637      0.00544        -0.000725      0.015398      0.000201
      4.03556      9.10035      2.99705         0.013532      0.000295      0.010120
      7.82757      9.10042     -0.12346         0.003190      0.000848     -0.001945
      1.05137      9.09972     10.11332         0.006551      0.000311      0.015702
     10.81000      9.09979      4.33758         0.007098      0.000298      0.004909
      9.96911     10.61796      7.32495         0.005741      0.004704     -0.003784
      1.89196     10.61802      7.12479         0.000053     -0.000280      0.013041
      6.98994     10.61876      8.65793         0.000464      0.003669     -0.000730
[...]
      5.96494      9.10104      2.84478         0.007083     -0.001592     -0.001770
      3.88611     10.61564      1.58415         0.006318      0.001640      0.001031
      7.97904     10.61804      1.28895        -0.000445     -0.001807      0.001522
      1.93801      9.10039      5.92266         0.001830     -0.001528      0.012769
      9.92005      9.10054      8.52823         0.000885      0.000696     -0.000667
     11.82715     10.62462      4.36211         0.000817     -0.000776      0.005532
      0.03299     10.62293     10.08785         0.000510     -0.005155      0.005300
      9.81711      9.09974      5.91367         0.005509      0.000578      0.002581
      2.04455      9.10025      8.53781         0.000601      0.000105      0.004194
      7.88030     10.62187      4.46594         0.006247      0.002453      0.004075
      3.98487     10.62468      9.98717        -0.000196     -0.000056      0.003702
      5.90093      9.10132      5.81916        -0.004400     -0.001554      0.007553
      5.96388      9.10140      8.63441         0.004094      0.000029      0.006745
      3.88543     10.62031      7.37325         0.005652     -0.000983      0.001709
      7.97687     10.62049      7.08122        -0.002918     -0.001663     -0.000966
    total drift:                               -0.081944     -0.002891     -0.122477

  FREE ENERGIE OF THE ION-ELECTRON SYSTEM (eV)
  free  energy   TOTEN  =     -1514.77804479 eV

  energy  without entropy=    -1514.77804479  energy(sigma->0) =    -1514.77804479

 d Force =-0.5264261E-06[-0.173E-05, 0.679E-06]  d Energy = 0.1010207E-04-0.106E-04
 d Force = 0.2169431E-01[ 0.217E-01, 0.217E-01]  d Ewald  = 0.2169366E-01 0.647E-06

 reached required accuracy - stopping structural energy minimisation
 writing wavefunctions

 total charge

[...]

 magnetization (x)

# of ion       s       p       d       tot
    1       -0.000  -0.000   0.000  -0.000
    2        0.000   0.000  -0.000   0.000
    3        0.000   0.000  -0.000   0.000
    4       -0.000   0.000  -0.000  -0.000
    5        0.000  -0.000  -0.000   0.000
    6       -0.000  -0.000  -0.000  -0.000
    7       -0.000  -0.000  -0.000  -0.000
    8        0.000   0.000  -0.000   0.000
    9       -0.000  -0.000   0.000   0.000
   10       -0.000  -0.000   0.000   0.000
   11        0.000   0.000   0.000   0.000
   12        0.000   0.000  -0.000  -0.000
   13        0.000   0.000  -0.000   0.000
   14       -0.000  -0.000  -0.000  -0.000
   15        0.000  -0.000  -0.000  -0.000
   16       -0.000   0.000  -0.000  -0.000
   17       -0.000  -0.000  -0.000  -0.000
   18       -0.000  -0.000  -0.000  -0.000
   19       -0.000  -0.000   0.000  -0.000
   20        0.000  -0.000  -0.000  -0.000
   21        0.000   0.000  -0.000   0.000
   22        0.000   0.000  -0.000   0.000
   23        0.000  -0.000  -0.000  -0.000
   24       -0.000  -0.000  -0.000  -0.000
   25        0.000   0.000  -0.000   0.000
   26       -0.000  -0.000  -0.000  -0.000
   27        0.000  -0.000   0.000   0.000
   28        0.000   0.000   0.000   0.000
   29        0.000   0.000  -0.000   0.000
   30        0.000   0.000   0.000   0.000
   31        0.000   0.000   0.000   0.000
   32        0.000   0.000  -0.000   0.000
   33       -0.000  -0.000  -0.000  -0.000
   34       -0.000   0.000  -0.000   0.000
   35        0.000   0.000  -0.000   0.000
   36        0.000   0.000  -0.000  -0.000
   37       -0.000  -0.000   0.000  -0.000
   38        0.000   0.000  -0.000   0.000
   39        0.000   0.000  -0.000   0.000
   40        0.000   0.000   0.000   0.000
   41        0.000  -0.000  -0.000  -0.000
   42        0.000   0.000  -0.000   0.000
   43        0.000   0.000  -0.000   0.000
   44        0.000  -0.000  -0.000  -0.000
   45       -0.000  -0.000  -0.000  -0.000
   46        0.000   0.000   0.000   0.000
   47        0.000  -0.000  -0.000  -0.000
   48        0.000   0.000   0.000   0.000
   49       -0.000  -0.000  -0.000  -0.000
   50        0.000  -0.000   0.000   0.000
   51        0.000   0.000  -0.000  -0.000
   52       -0.000   0.000  -0.000  -0.000
   53       -0.000   0.000   0.000   0.000
   54        0.000  -0.000   0.000   0.000
   55       -0.000  -0.000   0.000   0.000
   56       -0.000   0.000  -0.000  -0.000
   57        0.000  -0.000  -0.000   0.000
   58       -0.000  -0.000   0.000  -0.000
   59        0.000   0.000  -0.000   0.000
   60        0.000   0.000   0.000   0.000
[...]
  146       -0.000  -0.000   0.000  -0.000
  147       -0.000  -0.000   0.000  -0.000
  148        0.000   0.000   0.000   0.000
  149       -0.000  -0.000   0.000  -0.000
  150        0.000   0.000   0.000   0.000
  151       -0.000  -0.000   0.000  -0.000
  152       -0.000  -0.000   0.000  -0.000
  153        0.000   0.000   0.000   0.000
  154       -0.000  -0.000   0.000  -0.000
  155        0.000   0.000   0.000   0.000
  156       -0.000  -0.000   0.000  -0.000
  157        0.000   0.000   0.000   0.000
  158       -0.000  -0.000   0.000  -0.000
  159       -0.000   0.000   0.000   0.000
  160        0.000   0.000   0.000   0.000
tot          0.000  -0.000  -0.000  -0.000